&CONTROL
  calculation='nscf',
  restart_mode='from_scratch',
  outdir='./tmp',
  prefix='rutile',
  forc_conv_thr=1.0d-5,
  etot_conv_thr=1.0d-8,
  pseudo_dir='/share/home/rutile/',
  wf_collect = .true.
/

&SYSTEM
  ibrav=6,
  celldm(1) = 8.805534179d0,
  celldm(3) = 0.637035188d0,
  nat=6,
  ntyp=2,
  ecutwfc=200,
  nbnd = 34,
/

&ELECTRONS
  conv_thr=1d-12,
  mixing_beta=0.7d0,
/

ATOMIC_SPECIES
  Ti 47.867000d0 Ti.IV.pbe-cep_ox.UPF
  O 15.999400d0 O.pbe.NC-cep.UPF

ATOMIC_POSITIONS (crystal)
Ti            0.5000000000        0.5000000000        0.5000000000
Ti            0.0000000000        0.0000000000        0.0000000000
O             0.8042084148        0.1957915552        0.5000000000
O             0.1957915552        0.8042084148        0.5000000000
O             0.3042084448        0.3042084448       -0.0000000000
O             0.6957915852        0.6957915852       -0.0000000000

K_POINTS crystal
768
  0.00000000  0.00000000  0.00000000  1.302083e-03 
  0.00000000  0.00000000  0.08333333  1.302083e-03 
  0.00000000  0.00000000  0.16666667  1.302083e-03 
  0.00000000  0.00000000  0.25000000  1.302083e-03 
  0.00000000  0.00000000  0.33333333  1.302083e-03 
  0.00000000  0.00000000  0.41666667  1.302083e-03 
  0.00000000  0.00000000  0.50000000  1.302083e-03 
  0.00000000  0.00000000  0.58333333  1.302083e-03 
  0.00000000  0.00000000  0.66666667  1.302083e-03 
  0.00000000  0.00000000  0.75000000  1.302083e-03 
  0.00000000  0.00000000  0.83333333  1.302083e-03 
  0.00000000  0.00000000  0.91666667  1.302083e-03 
  0.00000000  0.12500000  0.00000000  1.302083e-03 
  0.00000000  0.12500000  0.08333333  1.302083e-03 
  0.00000000  0.12500000  0.16666667  1.302083e-03 
  0.00000000  0.12500000  0.25000000  1.302083e-03 
  0.00000000  0.12500000  0.33333333  1.302083e-03 
  0.00000000  0.12500000  0.41666667  1.302083e-03 
  0.00000000  0.12500000  0.50000000  1.302083e-03 
  0.00000000  0.12500000  0.58333333  1.302083e-03 
  0.00000000  0.12500000  0.66666667  1.302083e-03 
  0.00000000  0.12500000  0.75000000  1.302083e-03 
  0.00000000  0.12500000  0.83333333  1.302083e-03 
  0.00000000  0.12500000  0.91666667  1.302083e-03 
  0.00000000  0.25000000  0.00000000  1.302083e-03 
  0.00000000  0.25000000  0.08333333  1.302083e-03 
  0.00000000  0.25000000  0.16666667  1.302083e-03 
  0.00000000  0.25000000  0.25000000  1.302083e-03 
  0.00000000  0.25000000  0.33333333  1.302083e-03 
  0.00000000  0.25000000  0.41666667  1.302083e-03 
  0.00000000  0.25000000  0.50000000  1.302083e-03 
  0.00000000  0.25000000  0.58333333  1.302083e-03 
  0.00000000  0.25000000  0.66666667  1.302083e-03 
  0.00000000  0.25000000  0.75000000  1.302083e-03 
  0.00000000  0.25000000  0.83333333  1.302083e-03 
  0.00000000  0.25000000  0.91666667  1.302083e-03 
  0.00000000  0.37500000  0.00000000  1.302083e-03 
  0.00000000  0.37500000  0.08333333  1.302083e-03 
  0.00000000  0.37500000  0.16666667  1.302083e-03 
  0.00000000  0.37500000  0.25000000  1.302083e-03 
  0.00000000  0.37500000  0.33333333  1.302083e-03 
  0.00000000  0.37500000  0.41666667  1.302083e-03 
  0.00000000  0.37500000  0.50000000  1.302083e-03 
  0.00000000  0.37500000  0.58333333  1.302083e-03 
  0.00000000  0.37500000  0.66666667  1.302083e-03 
  0.00000000  0.37500000  0.75000000  1.302083e-03 
  0.00000000  0.37500000  0.83333333  1.302083e-03 
  0.00000000  0.37500000  0.91666667  1.302083e-03 
  0.00000000  0.50000000  0.00000000  1.302083e-03 
  0.00000000  0.50000000  0.08333333  1.302083e-03 
  0.00000000  0.50000000  0.16666667  1.302083e-03 
  0.00000000  0.50000000  0.25000000  1.302083e-03 
  0.00000000  0.50000000  0.33333333  1.302083e-03 
  0.00000000  0.50000000  0.41666667  1.302083e-03 
  0.00000000  0.50000000  0.50000000  1.302083e-03 
  0.00000000  0.50000000  0.58333333  1.302083e-03 
  0.00000000  0.50000000  0.66666667  1.302083e-03 
  0.00000000  0.50000000  0.75000000  1.302083e-03 
  0.00000000  0.50000000  0.83333333  1.302083e-03 
  0.00000000  0.50000000  0.91666667  1.302083e-03 
  0.00000000  0.62500000  0.00000000  1.302083e-03 
  0.00000000  0.62500000  0.08333333  1.302083e-03 
  0.00000000  0.62500000  0.16666667  1.302083e-03 
  0.00000000  0.62500000  0.25000000  1.302083e-03 
  0.00000000  0.62500000  0.33333333  1.302083e-03 
  0.00000000  0.62500000  0.41666667  1.302083e-03 
  0.00000000  0.62500000  0.50000000  1.302083e-03 
  0.00000000  0.62500000  0.58333333  1.302083e-03 
  0.00000000  0.62500000  0.66666667  1.302083e-03 
  0.00000000  0.62500000  0.75000000  1.302083e-03 
  0.00000000  0.62500000  0.83333333  1.302083e-03 
  0.00000000  0.62500000  0.91666667  1.302083e-03 
  0.00000000  0.75000000  0.00000000  1.302083e-03 
  0.00000000  0.75000000  0.08333333  1.302083e-03 
  0.00000000  0.75000000  0.16666667  1.302083e-03 
  0.00000000  0.75000000  0.25000000  1.302083e-03 
  0.00000000  0.75000000  0.33333333  1.302083e-03 
  0.00000000  0.75000000  0.41666667  1.302083e-03 
  0.00000000  0.75000000  0.50000000  1.302083e-03 
  0.00000000  0.75000000  0.58333333  1.302083e-03 
  0.00000000  0.75000000  0.66666667  1.302083e-03 
  0.00000000  0.75000000  0.75000000  1.302083e-03 
  0.00000000  0.75000000  0.83333333  1.302083e-03 
  0.00000000  0.75000000  0.91666667  1.302083e-03 
  0.00000000  0.87500000  0.00000000  1.302083e-03 
  0.00000000  0.87500000  0.08333333  1.302083e-03 
  0.00000000  0.87500000  0.16666667  1.302083e-03 
  0.00000000  0.87500000  0.25000000  1.302083e-03 
  0.00000000  0.87500000  0.33333333  1.302083e-03 
  0.00000000  0.87500000  0.41666667  1.302083e-03 
  0.00000000  0.87500000  0.50000000  1.302083e-03 
  0.00000000  0.87500000  0.58333333  1.302083e-03 
  0.00000000  0.87500000  0.66666667  1.302083e-03 
  0.00000000  0.87500000  0.75000000  1.302083e-03 
  0.00000000  0.87500000  0.83333333  1.302083e-03 
  0.00000000  0.87500000  0.91666667  1.302083e-03 
  0.12500000  0.00000000  0.00000000  1.302083e-03 
  0.12500000  0.00000000  0.08333333  1.302083e-03 
  0.12500000  0.00000000  0.16666667  1.302083e-03 
  0.12500000  0.00000000  0.25000000  1.302083e-03 
  0.12500000  0.00000000  0.33333333  1.302083e-03 
  0.12500000  0.00000000  0.41666667  1.302083e-03 
  0.12500000  0.00000000  0.50000000  1.302083e-03 
  0.12500000  0.00000000  0.58333333  1.302083e-03 
  0.12500000  0.00000000  0.66666667  1.302083e-03 
  0.12500000  0.00000000  0.75000000  1.302083e-03 
  0.12500000  0.00000000  0.83333333  1.302083e-03 
  0.12500000  0.00000000  0.91666667  1.302083e-03 
  0.12500000  0.12500000  0.00000000  1.302083e-03 
  0.12500000  0.12500000  0.08333333  1.302083e-03 
  0.12500000  0.12500000  0.16666667  1.302083e-03 
  0.12500000  0.12500000  0.25000000  1.302083e-03 
  0.12500000  0.12500000  0.33333333  1.302083e-03 
  0.12500000  0.12500000  0.41666667  1.302083e-03 
  0.12500000  0.12500000  0.50000000  1.302083e-03 
  0.12500000  0.12500000  0.58333333  1.302083e-03 
  0.12500000  0.12500000  0.66666667  1.302083e-03 
  0.12500000  0.12500000  0.75000000  1.302083e-03 
  0.12500000  0.12500000  0.83333333  1.302083e-03 
  0.12500000  0.12500000  0.91666667  1.302083e-03 
  0.12500000  0.25000000  0.00000000  1.302083e-03 
  0.12500000  0.25000000  0.08333333  1.302083e-03 
  0.12500000  0.25000000  0.16666667  1.302083e-03 
  0.12500000  0.25000000  0.25000000  1.302083e-03 
  0.12500000  0.25000000  0.33333333  1.302083e-03 
  0.12500000  0.25000000  0.41666667  1.302083e-03 
  0.12500000  0.25000000  0.50000000  1.302083e-03 
  0.12500000  0.25000000  0.58333333  1.302083e-03 
  0.12500000  0.25000000  0.66666667  1.302083e-03 
  0.12500000  0.25000000  0.75000000  1.302083e-03 
  0.12500000  0.25000000  0.83333333  1.302083e-03 
  0.12500000  0.25000000  0.91666667  1.302083e-03 
  0.12500000  0.37500000  0.00000000  1.302083e-03 
  0.12500000  0.37500000  0.08333333  1.302083e-03 
  0.12500000  0.37500000  0.16666667  1.302083e-03 
  0.12500000  0.37500000  0.25000000  1.302083e-03 
  0.12500000  0.37500000  0.33333333  1.302083e-03 
  0.12500000  0.37500000  0.41666667  1.302083e-03 
  0.12500000  0.37500000  0.50000000  1.302083e-03 
  0.12500000  0.37500000  0.58333333  1.302083e-03 
  0.12500000  0.37500000  0.66666667  1.302083e-03 
  0.12500000  0.37500000  0.75000000  1.302083e-03 
  0.12500000  0.37500000  0.83333333  1.302083e-03 
  0.12500000  0.37500000  0.91666667  1.302083e-03 
  0.12500000  0.50000000  0.00000000  1.302083e-03 
  0.12500000  0.50000000  0.08333333  1.302083e-03 
  0.12500000  0.50000000  0.16666667  1.302083e-03 
  0.12500000  0.50000000  0.25000000  1.302083e-03 
  0.12500000  0.50000000  0.33333333  1.302083e-03 
  0.12500000  0.50000000  0.41666667  1.302083e-03 
  0.12500000  0.50000000  0.50000000  1.302083e-03 
  0.12500000  0.50000000  0.58333333  1.302083e-03 
  0.12500000  0.50000000  0.66666667  1.302083e-03 
  0.12500000  0.50000000  0.75000000  1.302083e-03 
  0.12500000  0.50000000  0.83333333  1.302083e-03 
  0.12500000  0.50000000  0.91666667  1.302083e-03 
  0.12500000  0.62500000  0.00000000  1.302083e-03 
  0.12500000  0.62500000  0.08333333  1.302083e-03 
  0.12500000  0.62500000  0.16666667  1.302083e-03 
  0.12500000  0.62500000  0.25000000  1.302083e-03 
  0.12500000  0.62500000  0.33333333  1.302083e-03 
  0.12500000  0.62500000  0.41666667  1.302083e-03 
  0.12500000  0.62500000  0.50000000  1.302083e-03 
  0.12500000  0.62500000  0.58333333  1.302083e-03 
  0.12500000  0.62500000  0.66666667  1.302083e-03 
  0.12500000  0.62500000  0.75000000  1.302083e-03 
  0.12500000  0.62500000  0.83333333  1.302083e-03 
  0.12500000  0.62500000  0.91666667  1.302083e-03 
  0.12500000  0.75000000  0.00000000  1.302083e-03 
  0.12500000  0.75000000  0.08333333  1.302083e-03 
  0.12500000  0.75000000  0.16666667  1.302083e-03 
  0.12500000  0.75000000  0.25000000  1.302083e-03 
  0.12500000  0.75000000  0.33333333  1.302083e-03 
  0.12500000  0.75000000  0.41666667  1.302083e-03 
  0.12500000  0.75000000  0.50000000  1.302083e-03 
  0.12500000  0.75000000  0.58333333  1.302083e-03 
  0.12500000  0.75000000  0.66666667  1.302083e-03 
  0.12500000  0.75000000  0.75000000  1.302083e-03 
  0.12500000  0.75000000  0.83333333  1.302083e-03 
  0.12500000  0.75000000  0.91666667  1.302083e-03 
  0.12500000  0.87500000  0.00000000  1.302083e-03 
  0.12500000  0.87500000  0.08333333  1.302083e-03 
  0.12500000  0.87500000  0.16666667  1.302083e-03 
  0.12500000  0.87500000  0.25000000  1.302083e-03 
  0.12500000  0.87500000  0.33333333  1.302083e-03 
  0.12500000  0.87500000  0.41666667  1.302083e-03 
  0.12500000  0.87500000  0.50000000  1.302083e-03 
  0.12500000  0.87500000  0.58333333  1.302083e-03 
  0.12500000  0.87500000  0.66666667  1.302083e-03 
  0.12500000  0.87500000  0.75000000  1.302083e-03 
  0.12500000  0.87500000  0.83333333  1.302083e-03 
  0.12500000  0.87500000  0.91666667  1.302083e-03 
  0.25000000  0.00000000  0.00000000  1.302083e-03 
  0.25000000  0.00000000  0.08333333  1.302083e-03 
  0.25000000  0.00000000  0.16666667  1.302083e-03 
  0.25000000  0.00000000  0.25000000  1.302083e-03 
  0.25000000  0.00000000  0.33333333  1.302083e-03 
  0.25000000  0.00000000  0.41666667  1.302083e-03 
  0.25000000  0.00000000  0.50000000  1.302083e-03 
  0.25000000  0.00000000  0.58333333  1.302083e-03 
  0.25000000  0.00000000  0.66666667  1.302083e-03 
  0.25000000  0.00000000  0.75000000  1.302083e-03 
  0.25000000  0.00000000  0.83333333  1.302083e-03 
  0.25000000  0.00000000  0.91666667  1.302083e-03 
  0.25000000  0.12500000  0.00000000  1.302083e-03 
  0.25000000  0.12500000  0.08333333  1.302083e-03 
  0.25000000  0.12500000  0.16666667  1.302083e-03 
  0.25000000  0.12500000  0.25000000  1.302083e-03 
  0.25000000  0.12500000  0.33333333  1.302083e-03 
  0.25000000  0.12500000  0.41666667  1.302083e-03 
  0.25000000  0.12500000  0.50000000  1.302083e-03 
  0.25000000  0.12500000  0.58333333  1.302083e-03 
  0.25000000  0.12500000  0.66666667  1.302083e-03 
  0.25000000  0.12500000  0.75000000  1.302083e-03 
  0.25000000  0.12500000  0.83333333  1.302083e-03 
  0.25000000  0.12500000  0.91666667  1.302083e-03 
  0.25000000  0.25000000  0.00000000  1.302083e-03 
  0.25000000  0.25000000  0.08333333  1.302083e-03 
  0.25000000  0.25000000  0.16666667  1.302083e-03 
  0.25000000  0.25000000  0.25000000  1.302083e-03 
  0.25000000  0.25000000  0.33333333  1.302083e-03 
  0.25000000  0.25000000  0.41666667  1.302083e-03 
  0.25000000  0.25000000  0.50000000  1.302083e-03 
  0.25000000  0.25000000  0.58333333  1.302083e-03 
  0.25000000  0.25000000  0.66666667  1.302083e-03 
  0.25000000  0.25000000  0.75000000  1.302083e-03 
  0.25000000  0.25000000  0.83333333  1.302083e-03 
  0.25000000  0.25000000  0.91666667  1.302083e-03 
  0.25000000  0.37500000  0.00000000  1.302083e-03 
  0.25000000  0.37500000  0.08333333  1.302083e-03 
  0.25000000  0.37500000  0.16666667  1.302083e-03 
  0.25000000  0.37500000  0.25000000  1.302083e-03 
  0.25000000  0.37500000  0.33333333  1.302083e-03 
  0.25000000  0.37500000  0.41666667  1.302083e-03 
  0.25000000  0.37500000  0.50000000  1.302083e-03 
  0.25000000  0.37500000  0.58333333  1.302083e-03 
  0.25000000  0.37500000  0.66666667  1.302083e-03 
  0.25000000  0.37500000  0.75000000  1.302083e-03 
  0.25000000  0.37500000  0.83333333  1.302083e-03 
  0.25000000  0.37500000  0.91666667  1.302083e-03 
  0.25000000  0.50000000  0.00000000  1.302083e-03 
  0.25000000  0.50000000  0.08333333  1.302083e-03 
  0.25000000  0.50000000  0.16666667  1.302083e-03 
  0.25000000  0.50000000  0.25000000  1.302083e-03 
  0.25000000  0.50000000  0.33333333  1.302083e-03 
  0.25000000  0.50000000  0.41666667  1.302083e-03 
  0.25000000  0.50000000  0.50000000  1.302083e-03 
  0.25000000  0.50000000  0.58333333  1.302083e-03 
  0.25000000  0.50000000  0.66666667  1.302083e-03 
  0.25000000  0.50000000  0.75000000  1.302083e-03 
  0.25000000  0.50000000  0.83333333  1.302083e-03 
  0.25000000  0.50000000  0.91666667  1.302083e-03 
  0.25000000  0.62500000  0.00000000  1.302083e-03 
  0.25000000  0.62500000  0.08333333  1.302083e-03 
  0.25000000  0.62500000  0.16666667  1.302083e-03 
  0.25000000  0.62500000  0.25000000  1.302083e-03 
  0.25000000  0.62500000  0.33333333  1.302083e-03 
  0.25000000  0.62500000  0.41666667  1.302083e-03 
  0.25000000  0.62500000  0.50000000  1.302083e-03 
  0.25000000  0.62500000  0.58333333  1.302083e-03 
  0.25000000  0.62500000  0.66666667  1.302083e-03 
  0.25000000  0.62500000  0.75000000  1.302083e-03 
  0.25000000  0.62500000  0.83333333  1.302083e-03 
  0.25000000  0.62500000  0.91666667  1.302083e-03 
  0.25000000  0.75000000  0.00000000  1.302083e-03 
  0.25000000  0.75000000  0.08333333  1.302083e-03 
  0.25000000  0.75000000  0.16666667  1.302083e-03 
  0.25000000  0.75000000  0.25000000  1.302083e-03 
  0.25000000  0.75000000  0.33333333  1.302083e-03 
  0.25000000  0.75000000  0.41666667  1.302083e-03 
  0.25000000  0.75000000  0.50000000  1.302083e-03 
  0.25000000  0.75000000  0.58333333  1.302083e-03 
  0.25000000  0.75000000  0.66666667  1.302083e-03 
  0.25000000  0.75000000  0.75000000  1.302083e-03 
  0.25000000  0.75000000  0.83333333  1.302083e-03 
  0.25000000  0.75000000  0.91666667  1.302083e-03 
  0.25000000  0.87500000  0.00000000  1.302083e-03 
  0.25000000  0.87500000  0.08333333  1.302083e-03 
  0.25000000  0.87500000  0.16666667  1.302083e-03 
  0.25000000  0.87500000  0.25000000  1.302083e-03 
  0.25000000  0.87500000  0.33333333  1.302083e-03 
  0.25000000  0.87500000  0.41666667  1.302083e-03 
  0.25000000  0.87500000  0.50000000  1.302083e-03 
  0.25000000  0.87500000  0.58333333  1.302083e-03 
  0.25000000  0.87500000  0.66666667  1.302083e-03 
  0.25000000  0.87500000  0.75000000  1.302083e-03 
  0.25000000  0.87500000  0.83333333  1.302083e-03 
  0.25000000  0.87500000  0.91666667  1.302083e-03 
  0.37500000  0.00000000  0.00000000  1.302083e-03 
  0.37500000  0.00000000  0.08333333  1.302083e-03 
  0.37500000  0.00000000  0.16666667  1.302083e-03 
  0.37500000  0.00000000  0.25000000  1.302083e-03 
  0.37500000  0.00000000  0.33333333  1.302083e-03 
  0.37500000  0.00000000  0.41666667  1.302083e-03 
  0.37500000  0.00000000  0.50000000  1.302083e-03 
  0.37500000  0.00000000  0.58333333  1.302083e-03 
  0.37500000  0.00000000  0.66666667  1.302083e-03 
  0.37500000  0.00000000  0.75000000  1.302083e-03 
  0.37500000  0.00000000  0.83333333  1.302083e-03 
  0.37500000  0.00000000  0.91666667  1.302083e-03 
  0.37500000  0.12500000  0.00000000  1.302083e-03 
  0.37500000  0.12500000  0.08333333  1.302083e-03 
  0.37500000  0.12500000  0.16666667  1.302083e-03 
  0.37500000  0.12500000  0.25000000  1.302083e-03 
  0.37500000  0.12500000  0.33333333  1.302083e-03 
  0.37500000  0.12500000  0.41666667  1.302083e-03 
  0.37500000  0.12500000  0.50000000  1.302083e-03 
  0.37500000  0.12500000  0.58333333  1.302083e-03 
  0.37500000  0.12500000  0.66666667  1.302083e-03 
  0.37500000  0.12500000  0.75000000  1.302083e-03 
  0.37500000  0.12500000  0.83333333  1.302083e-03 
  0.37500000  0.12500000  0.91666667  1.302083e-03 
  0.37500000  0.25000000  0.00000000  1.302083e-03 
  0.37500000  0.25000000  0.08333333  1.302083e-03 
  0.37500000  0.25000000  0.16666667  1.302083e-03 
  0.37500000  0.25000000  0.25000000  1.302083e-03 
  0.37500000  0.25000000  0.33333333  1.302083e-03 
  0.37500000  0.25000000  0.41666667  1.302083e-03 
  0.37500000  0.25000000  0.50000000  1.302083e-03 
  0.37500000  0.25000000  0.58333333  1.302083e-03 
  0.37500000  0.25000000  0.66666667  1.302083e-03 
  0.37500000  0.25000000  0.75000000  1.302083e-03 
  0.37500000  0.25000000  0.83333333  1.302083e-03 
  0.37500000  0.25000000  0.91666667  1.302083e-03 
  0.37500000  0.37500000  0.00000000  1.302083e-03 
  0.37500000  0.37500000  0.08333333  1.302083e-03 
  0.37500000  0.37500000  0.16666667  1.302083e-03 
  0.37500000  0.37500000  0.25000000  1.302083e-03 
  0.37500000  0.37500000  0.33333333  1.302083e-03 
  0.37500000  0.37500000  0.41666667  1.302083e-03 
  0.37500000  0.37500000  0.50000000  1.302083e-03 
  0.37500000  0.37500000  0.58333333  1.302083e-03 
  0.37500000  0.37500000  0.66666667  1.302083e-03 
  0.37500000  0.37500000  0.75000000  1.302083e-03 
  0.37500000  0.37500000  0.83333333  1.302083e-03 
  0.37500000  0.37500000  0.91666667  1.302083e-03 
  0.37500000  0.50000000  0.00000000  1.302083e-03 
  0.37500000  0.50000000  0.08333333  1.302083e-03 
  0.37500000  0.50000000  0.16666667  1.302083e-03 
  0.37500000  0.50000000  0.25000000  1.302083e-03 
  0.37500000  0.50000000  0.33333333  1.302083e-03 
  0.37500000  0.50000000  0.41666667  1.302083e-03 
  0.37500000  0.50000000  0.50000000  1.302083e-03 
  0.37500000  0.50000000  0.58333333  1.302083e-03 
  0.37500000  0.50000000  0.66666667  1.302083e-03 
  0.37500000  0.50000000  0.75000000  1.302083e-03 
  0.37500000  0.50000000  0.83333333  1.302083e-03 
  0.37500000  0.50000000  0.91666667  1.302083e-03 
  0.37500000  0.62500000  0.00000000  1.302083e-03 
  0.37500000  0.62500000  0.08333333  1.302083e-03 
  0.37500000  0.62500000  0.16666667  1.302083e-03 
  0.37500000  0.62500000  0.25000000  1.302083e-03 
  0.37500000  0.62500000  0.33333333  1.302083e-03 
  0.37500000  0.62500000  0.41666667  1.302083e-03 
  0.37500000  0.62500000  0.50000000  1.302083e-03 
  0.37500000  0.62500000  0.58333333  1.302083e-03 
  0.37500000  0.62500000  0.66666667  1.302083e-03 
  0.37500000  0.62500000  0.75000000  1.302083e-03 
  0.37500000  0.62500000  0.83333333  1.302083e-03 
  0.37500000  0.62500000  0.91666667  1.302083e-03 
  0.37500000  0.75000000  0.00000000  1.302083e-03 
  0.37500000  0.75000000  0.08333333  1.302083e-03 
  0.37500000  0.75000000  0.16666667  1.302083e-03 
  0.37500000  0.75000000  0.25000000  1.302083e-03 
  0.37500000  0.75000000  0.33333333  1.302083e-03 
  0.37500000  0.75000000  0.41666667  1.302083e-03 
  0.37500000  0.75000000  0.50000000  1.302083e-03 
  0.37500000  0.75000000  0.58333333  1.302083e-03 
  0.37500000  0.75000000  0.66666667  1.302083e-03 
  0.37500000  0.75000000  0.75000000  1.302083e-03 
  0.37500000  0.75000000  0.83333333  1.302083e-03 
  0.37500000  0.75000000  0.91666667  1.302083e-03 
  0.37500000  0.87500000  0.00000000  1.302083e-03 
  0.37500000  0.87500000  0.08333333  1.302083e-03 
  0.37500000  0.87500000  0.16666667  1.302083e-03 
  0.37500000  0.87500000  0.25000000  1.302083e-03 
  0.37500000  0.87500000  0.33333333  1.302083e-03 
  0.37500000  0.87500000  0.41666667  1.302083e-03 
  0.37500000  0.87500000  0.50000000  1.302083e-03 
  0.37500000  0.87500000  0.58333333  1.302083e-03 
  0.37500000  0.87500000  0.66666667  1.302083e-03 
  0.37500000  0.87500000  0.75000000  1.302083e-03 
  0.37500000  0.87500000  0.83333333  1.302083e-03 
  0.37500000  0.87500000  0.91666667  1.302083e-03 
  0.50000000  0.00000000  0.00000000  1.302083e-03 
  0.50000000  0.00000000  0.08333333  1.302083e-03 
  0.50000000  0.00000000  0.16666667  1.302083e-03 
  0.50000000  0.00000000  0.25000000  1.302083e-03 
  0.50000000  0.00000000  0.33333333  1.302083e-03 
  0.50000000  0.00000000  0.41666667  1.302083e-03 
  0.50000000  0.00000000  0.50000000  1.302083e-03 
  0.50000000  0.00000000  0.58333333  1.302083e-03 
  0.50000000  0.00000000  0.66666667  1.302083e-03 
  0.50000000  0.00000000  0.75000000  1.302083e-03 
  0.50000000  0.00000000  0.83333333  1.302083e-03 
  0.50000000  0.00000000  0.91666667  1.302083e-03 
  0.50000000  0.12500000  0.00000000  1.302083e-03 
  0.50000000  0.12500000  0.08333333  1.302083e-03 
  0.50000000  0.12500000  0.16666667  1.302083e-03 
  0.50000000  0.12500000  0.25000000  1.302083e-03 
  0.50000000  0.12500000  0.33333333  1.302083e-03 
  0.50000000  0.12500000  0.41666667  1.302083e-03 
  0.50000000  0.12500000  0.50000000  1.302083e-03 
  0.50000000  0.12500000  0.58333333  1.302083e-03 
  0.50000000  0.12500000  0.66666667  1.302083e-03 
  0.50000000  0.12500000  0.75000000  1.302083e-03 
  0.50000000  0.12500000  0.83333333  1.302083e-03 
  0.50000000  0.12500000  0.91666667  1.302083e-03 
  0.50000000  0.25000000  0.00000000  1.302083e-03 
  0.50000000  0.25000000  0.08333333  1.302083e-03 
  0.50000000  0.25000000  0.16666667  1.302083e-03 
  0.50000000  0.25000000  0.25000000  1.302083e-03 
  0.50000000  0.25000000  0.33333333  1.302083e-03 
  0.50000000  0.25000000  0.41666667  1.302083e-03 
  0.50000000  0.25000000  0.50000000  1.302083e-03 
  0.50000000  0.25000000  0.58333333  1.302083e-03 
  0.50000000  0.25000000  0.66666667  1.302083e-03 
  0.50000000  0.25000000  0.75000000  1.302083e-03 
  0.50000000  0.25000000  0.83333333  1.302083e-03 
  0.50000000  0.25000000  0.91666667  1.302083e-03 
  0.50000000  0.37500000  0.00000000  1.302083e-03 
  0.50000000  0.37500000  0.08333333  1.302083e-03 
  0.50000000  0.37500000  0.16666667  1.302083e-03 
  0.50000000  0.37500000  0.25000000  1.302083e-03 
  0.50000000  0.37500000  0.33333333  1.302083e-03 
  0.50000000  0.37500000  0.41666667  1.302083e-03 
  0.50000000  0.37500000  0.50000000  1.302083e-03 
  0.50000000  0.37500000  0.58333333  1.302083e-03 
  0.50000000  0.37500000  0.66666667  1.302083e-03 
  0.50000000  0.37500000  0.75000000  1.302083e-03 
  0.50000000  0.37500000  0.83333333  1.302083e-03 
  0.50000000  0.37500000  0.91666667  1.302083e-03 
  0.50000000  0.50000000  0.00000000  1.302083e-03 
  0.50000000  0.50000000  0.08333333  1.302083e-03 
  0.50000000  0.50000000  0.16666667  1.302083e-03 
  0.50000000  0.50000000  0.25000000  1.302083e-03 
  0.50000000  0.50000000  0.33333333  1.302083e-03 
  0.50000000  0.50000000  0.41666667  1.302083e-03 
  0.50000000  0.50000000  0.50000000  1.302083e-03 
  0.50000000  0.50000000  0.58333333  1.302083e-03 
  0.50000000  0.50000000  0.66666667  1.302083e-03 
  0.50000000  0.50000000  0.75000000  1.302083e-03 
  0.50000000  0.50000000  0.83333333  1.302083e-03 
  0.50000000  0.50000000  0.91666667  1.302083e-03 
  0.50000000  0.62500000  0.00000000  1.302083e-03 
  0.50000000  0.62500000  0.08333333  1.302083e-03 
  0.50000000  0.62500000  0.16666667  1.302083e-03 
  0.50000000  0.62500000  0.25000000  1.302083e-03 
  0.50000000  0.62500000  0.33333333  1.302083e-03 
  0.50000000  0.62500000  0.41666667  1.302083e-03 
  0.50000000  0.62500000  0.50000000  1.302083e-03 
  0.50000000  0.62500000  0.58333333  1.302083e-03 
  0.50000000  0.62500000  0.66666667  1.302083e-03 
  0.50000000  0.62500000  0.75000000  1.302083e-03 
  0.50000000  0.62500000  0.83333333  1.302083e-03 
  0.50000000  0.62500000  0.91666667  1.302083e-03 
  0.50000000  0.75000000  0.00000000  1.302083e-03 
  0.50000000  0.75000000  0.08333333  1.302083e-03 
  0.50000000  0.75000000  0.16666667  1.302083e-03 
  0.50000000  0.75000000  0.25000000  1.302083e-03 
  0.50000000  0.75000000  0.33333333  1.302083e-03 
  0.50000000  0.75000000  0.41666667  1.302083e-03 
  0.50000000  0.75000000  0.50000000  1.302083e-03 
  0.50000000  0.75000000  0.58333333  1.302083e-03 
  0.50000000  0.75000000  0.66666667  1.302083e-03 
  0.50000000  0.75000000  0.75000000  1.302083e-03 
  0.50000000  0.75000000  0.83333333  1.302083e-03 
  0.50000000  0.75000000  0.91666667  1.302083e-03 
  0.50000000  0.87500000  0.00000000  1.302083e-03 
  0.50000000  0.87500000  0.08333333  1.302083e-03 
  0.50000000  0.87500000  0.16666667  1.302083e-03 
  0.50000000  0.87500000  0.25000000  1.302083e-03 
  0.50000000  0.87500000  0.33333333  1.302083e-03 
  0.50000000  0.87500000  0.41666667  1.302083e-03 
  0.50000000  0.87500000  0.50000000  1.302083e-03 
  0.50000000  0.87500000  0.58333333  1.302083e-03 
  0.50000000  0.87500000  0.66666667  1.302083e-03 
  0.50000000  0.87500000  0.75000000  1.302083e-03 
  0.50000000  0.87500000  0.83333333  1.302083e-03 
  0.50000000  0.87500000  0.91666667  1.302083e-03 
  0.62500000  0.00000000  0.00000000  1.302083e-03 
  0.62500000  0.00000000  0.08333333  1.302083e-03 
  0.62500000  0.00000000  0.16666667  1.302083e-03 
  0.62500000  0.00000000  0.25000000  1.302083e-03 
  0.62500000  0.00000000  0.33333333  1.302083e-03 
  0.62500000  0.00000000  0.41666667  1.302083e-03 
  0.62500000  0.00000000  0.50000000  1.302083e-03 
  0.62500000  0.00000000  0.58333333  1.302083e-03 
  0.62500000  0.00000000  0.66666667  1.302083e-03 
  0.62500000  0.00000000  0.75000000  1.302083e-03 
  0.62500000  0.00000000  0.83333333  1.302083e-03 
  0.62500000  0.00000000  0.91666667  1.302083e-03 
  0.62500000  0.12500000  0.00000000  1.302083e-03 
  0.62500000  0.12500000  0.08333333  1.302083e-03 
  0.62500000  0.12500000  0.16666667  1.302083e-03 
  0.62500000  0.12500000  0.25000000  1.302083e-03 
  0.62500000  0.12500000  0.33333333  1.302083e-03 
  0.62500000  0.12500000  0.41666667  1.302083e-03 
  0.62500000  0.12500000  0.50000000  1.302083e-03 
  0.62500000  0.12500000  0.58333333  1.302083e-03 
  0.62500000  0.12500000  0.66666667  1.302083e-03 
  0.62500000  0.12500000  0.75000000  1.302083e-03 
  0.62500000  0.12500000  0.83333333  1.302083e-03 
  0.62500000  0.12500000  0.91666667  1.302083e-03 
  0.62500000  0.25000000  0.00000000  1.302083e-03 
  0.62500000  0.25000000  0.08333333  1.302083e-03 
  0.62500000  0.25000000  0.16666667  1.302083e-03 
  0.62500000  0.25000000  0.25000000  1.302083e-03 
  0.62500000  0.25000000  0.33333333  1.302083e-03 
  0.62500000  0.25000000  0.41666667  1.302083e-03 
  0.62500000  0.25000000  0.50000000  1.302083e-03 
  0.62500000  0.25000000  0.58333333  1.302083e-03 
  0.62500000  0.25000000  0.66666667  1.302083e-03 
  0.62500000  0.25000000  0.75000000  1.302083e-03 
  0.62500000  0.25000000  0.83333333  1.302083e-03 
  0.62500000  0.25000000  0.91666667  1.302083e-03 
  0.62500000  0.37500000  0.00000000  1.302083e-03 
  0.62500000  0.37500000  0.08333333  1.302083e-03 
  0.62500000  0.37500000  0.16666667  1.302083e-03 
  0.62500000  0.37500000  0.25000000  1.302083e-03 
  0.62500000  0.37500000  0.33333333  1.302083e-03 
  0.62500000  0.37500000  0.41666667  1.302083e-03 
  0.62500000  0.37500000  0.50000000  1.302083e-03 
  0.62500000  0.37500000  0.58333333  1.302083e-03 
  0.62500000  0.37500000  0.66666667  1.302083e-03 
  0.62500000  0.37500000  0.75000000  1.302083e-03 
  0.62500000  0.37500000  0.83333333  1.302083e-03 
  0.62500000  0.37500000  0.91666667  1.302083e-03 
  0.62500000  0.50000000  0.00000000  1.302083e-03 
  0.62500000  0.50000000  0.08333333  1.302083e-03 
  0.62500000  0.50000000  0.16666667  1.302083e-03 
  0.62500000  0.50000000  0.25000000  1.302083e-03 
  0.62500000  0.50000000  0.33333333  1.302083e-03 
  0.62500000  0.50000000  0.41666667  1.302083e-03 
  0.62500000  0.50000000  0.50000000  1.302083e-03 
  0.62500000  0.50000000  0.58333333  1.302083e-03 
  0.62500000  0.50000000  0.66666667  1.302083e-03 
  0.62500000  0.50000000  0.75000000  1.302083e-03 
  0.62500000  0.50000000  0.83333333  1.302083e-03 
  0.62500000  0.50000000  0.91666667  1.302083e-03 
  0.62500000  0.62500000  0.00000000  1.302083e-03 
  0.62500000  0.62500000  0.08333333  1.302083e-03 
  0.62500000  0.62500000  0.16666667  1.302083e-03 
  0.62500000  0.62500000  0.25000000  1.302083e-03 
  0.62500000  0.62500000  0.33333333  1.302083e-03 
  0.62500000  0.62500000  0.41666667  1.302083e-03 
  0.62500000  0.62500000  0.50000000  1.302083e-03 
  0.62500000  0.62500000  0.58333333  1.302083e-03 
  0.62500000  0.62500000  0.66666667  1.302083e-03 
  0.62500000  0.62500000  0.75000000  1.302083e-03 
  0.62500000  0.62500000  0.83333333  1.302083e-03 
  0.62500000  0.62500000  0.91666667  1.302083e-03 
  0.62500000  0.75000000  0.00000000  1.302083e-03 
  0.62500000  0.75000000  0.08333333  1.302083e-03 
  0.62500000  0.75000000  0.16666667  1.302083e-03 
  0.62500000  0.75000000  0.25000000  1.302083e-03 
  0.62500000  0.75000000  0.33333333  1.302083e-03 
  0.62500000  0.75000000  0.41666667  1.302083e-03 
  0.62500000  0.75000000  0.50000000  1.302083e-03 