&qe2pert
  prefix='rutile'
  outdir='./tmp'
  phdir='../pw-ph-wann/phonon/save'
  nk1=8, nk2=8, nk3=12
  dft_band_min = 25
  dft_band_max = 34
  num_wann = 10
  lwannier=.false.
  asr = simple
/
