!input of Wannier 90
num_wann        =  10
exclude_bands = 1:24
num_bands = 10
num_iter        = 800
iprint = 2
guiding_centres=true

write_hr = .TRUE.
write_xyz=.TRUE.
write_u_matrices = .true.
write_hr_diag=.TRUE.

bands_plot      =  true
begin kpoint_path
Z 0.0000  0.0000 0.50000 A 0.500000  0.500000 0.50000
A 0.500000  0.500000 0.50000 M 0.500000 0.50000 0.0000
M 0.50000  0.50000 0.0000 G 0.00000  0.00000 0.0000
G 0.00000  0.00000 0.0000 Z 0.0000  0.0000 0.50000
Z 0.0000  0.0000 0.50000 R 0.00000  0.50000 0.50000
R 0.00000  0.50000 0.50000 X 0.00000  0.500000 0.0000
X 0.00000  0.500000 0.0000 G 0.00000  0.00000 0.0000
end kpoint_path

begin atoms_cart
bohr 
Ti   4.4027670895 4.4027670895 2.8047175606
Ti   0.0000000000 0.0000000000 0.0000000000
O    7.0814846836 1.7240492313 2.8047175606
O    1.7240492313 7.0814846836 2.8047175606
O    2.6787178582 2.6787178582 0.0000000000
O    6.1268165849 6.1268165849 0.0000000000
end atoms_cart

begin projections
Ti:d
end projections

begin unit_cell_cart
bohr
  8.805534179 0.000000000 0.000000000
  0.000000000 8.805534179 0.000000000
  0.000000000 0.000000000 5.609435121
end unit_cell_cart

mp_grid : 8 8 12  

begin kpoints
  0.00000000  0.00000000  0.00000000 
  0.00000000  0.00000000  0.08333333 
  0.00000000  0.00000000  0.16666667 
  0.00000000  0.00000000  0.25000000 
  0.00000000  0.00000000  0.33333333 
  0.00000000  0.00000000  0.41666667 
  0.00000000  0.00000000  0.50000000 
  0.00000000  0.00000000  0.58333333 
  0.00000000  0.00000000  0.66666667 
  0.00000000  0.00000000  0.75000000 
  0.00000000  0.00000000  0.83333333 
  0.00000000  0.00000000  0.91666667 
  0.00000000  0.12500000  0.00000000 
  0.00000000  0.12500000  0.08333333 
  0.00000000  0.12500000  0.16666667 
  0.00000000  0.12500000  0.25000000 
  0.00000000  0.12500000  0.33333333 
  0.00000000  0.12500000  0.41666667 
  0.00000000  0.12500000  0.50000000 
  0.00000000  0.12500000  0.58333333 
  0.00000000  0.12500000  0.66666667 
  0.00000000  0.12500000  0.75000000 
  0.00000000  0.12500000  0.83333333 
  0.00000000  0.12500000  0.91666667 
  0.00000000  0.25000000  0.00000000 
  0.00000000  0.25000000  0.08333333 
  0.00000000  0.25000000  0.16666667 
  0.00000000  0.25000000  0.25000000 
  0.00000000  0.25000000  0.33333333 
  0.00000000  0.25000000  0.41666667 
  0.00000000  0.25000000  0.50000000 
  0.00000000  0.25000000  0.58333333 
  0.00000000  0.25000000  0.66666667 
  0.00000000  0.25000000  0.75000000 
  0.00000000  0.25000000  0.83333333 
  0.00000000  0.25000000  0.91666667 
  0.00000000  0.37500000  0.00000000 
  0.00000000  0.37500000  0.08333333 
  0.00000000  0.37500000  0.16666667 
  0.00000000  0.37500000  0.25000000 
  0.00000000  0.37500000  0.33333333 
  0.00000000  0.37500000  0.41666667 
  0.00000000  0.37500000  0.50000000 
  0.00000000  0.37500000  0.58333333 
  0.00000000  0.37500000  0.66666667 
  0.00000000  0.37500000  0.75000000 
  0.00000000  0.37500000  0.83333333 
  0.00000000  0.37500000  0.91666667 
  0.00000000  0.50000000  0.00000000 
  0.00000000  0.50000000  0.08333333 
  0.00000000  0.50000000  0.16666667 
  0.00000000  0.50000000  0.25000000 
  0.00000000  0.50000000  0.33333333 
  0.00000000  0.50000000  0.41666667 
  0.00000000  0.50000000  0.50000000 
  0.00000000  0.50000000  0.58333333 
  0.00000000  0.50000000  0.66666667 
  0.00000000  0.50000000  0.75000000 
  0.00000000  0.50000000  0.83333333 
  0.00000000  0.50000000  0.91666667 
  0.00000000  0.62500000  0.00000000 
  0.00000000  0.62500000  0.08333333 
  0.00000000  0.62500000  0.16666667 
  0.00000000  0.62500000  0.25000000 
  0.00000000  0.62500000  0.33333333 
  0.00000000  0.62500000  0.41666667 
  0.00000000  0.62500000  0.50000000 
  0.00000000  0.62500000  0.58333333 
  0.00000000  0.62500000  0.66666667 
  0.00000000  0.62500000  0.75000000 
  0.00000000  0.62500000  0.83333333 
  0.00000000  0.62500000  0.91666667 
  0.00000000  0.75000000  0.00000000 
  0.00000000  0.75000000  0.08333333 
  0.00000000  0.75000000  0.16666667 
  0.00000000  0.75000000  0.25000000 
  0.00000000  0.75000000  0.33333333 
  0.00000000  0.75000000  0.41666667 
  0.00000000  0.75000000  0.50000000 
  0.00000000  0.75000000  0.58333333 
  0.00000000  0.75000000  0.66666667 
  0.00000000  0.75000000  0.75000000 
  0.00000000  0.75000000  0.83333333 
  0.00000000  0.75000000  0.91666667 
  0.00000000  0.87500000  0.00000000 
  0.00000000  0.87500000  0.08333333 
  0.00000000  0.87500000  0.16666667 
  0.00000000  0.87500000  0.25000000 
  0.00000000  0.87500000  0.33333333 
  0.00000000  0.87500000  0.41666667 
  0.00000000  0.87500000  0.50000000 
  0.00000000  0.87500000  0.58333333 
  0.00000000  0.87500000  0.66666667 
  0.00000000  0.87500000  0.75000000 
  0.00000000  0.87500000  0.83333333 
  0.00000000  0.87500000  0.91666667 
  0.12500000  0.00000000  0.00000000 
  0.12500000  0.00000000  0.08333333 
  0.12500000  0.00000000  0.16666667 
  0.12500000  0.00000000  0.25000000 
  0.12500000  0.00000000  0.33333333 
  0.12500000  0.00000000  0.41666667 
  0.12500000  0.00000000  0.50000000 
  0.12500000  0.00000000  0.58333333 
  0.12500000  0.00000000  0.66666667 
  0.12500000  0.00000000  0.75000000 
  0.12500000  0.00000000  0.83333333 
  0.12500000  0.00000000  0.91666667 
  0.12500000  0.12500000  0.00000000 
  0.12500000  0.12500000  0.08333333 
  0.12500000  0.12500000  0.16666667 
  0.12500000  0.12500000  0.25000000 
  0.12500000  0.12500000  0.33333333 
  0.12500000  0.12500000  0.41666667 
  0.12500000  0.12500000  0.50000000 
  0.12500000  0.12500000  0.58333333 
  0.12500000  0.12500000  0.66666667 
  0.12500000  0.12500000  0.75000000 
  0.12500000  0.12500000  0.83333333 
  0.12500000  0.12500000  0.91666667 
  0.12500000  0.25000000  0.00000000 
  0.12500000  0.25000000  0.08333333 
  0.12500000  0.25000000  0.16666667 
  0.12500000  0.25000000  0.25000000 
  0.12500000  0.25000000  0.33333333 
  0.12500000  0.25000000  0.41666667 
  0.12500000  0.25000000  0.50000000 
  0.12500000  0.25000000  0.58333333 
  0.12500000  0.25000000  0.66666667 
  0.12500000  0.25000000  0.75000000 
  0.12500000  0.25000000  0.83333333 
  0.12500000  0.25000000  0.91666667 
  0.12500000  0.37500000  0.00000000 
  0.12500000  0.37500000  0.08333333 
  0.12500000  0.37500000  0.16666667 
  0.12500000  0.37500000  0.25000000 
  0.12500000  0.37500000  0.33333333 
  0.12500000  0.37500000  0.41666667 
  0.12500000  0.37500000  0.50000000 
  0.12500000  0.37500000  0.58333333 
  0.12500000  0.37500000  0.66666667 
  0.12500000  0.37500000  0.75000000 
  0.12500000  0.37500000  0.83333333 
  0.12500000  0.37500000  0.91666667 
  0.12500000  0.50000000  0.00000000 
  0.12500000  0.50000000  0.08333333 
  0.12500000  0.50000000  0.16666667 
  0.12500000  0.50000000  0.25000000 
  0.12500000  0.50000000  0.33333333 
  0.12500000  0.50000000  0.41666667 
  0.12500000  0.50000000  0.50000000 
  0.12500000  0.50000000  0.58333333 
  0.12500000  0.50000000  0.66666667 
  0.12500000  0.50000000  0.75000000 
  0.12500000  0.50000000  0.83333333 
  0.12500000  0.50000000  0.91666667 
  0.12500000  0.62500000  0.00000000 
  0.12500000  0.62500000  0.08333333 
  0.12500000  0.62500000  0.16666667 
  0.12500000  0.62500000  0.25000000 
  0.12500000  0.62500000  0.33333333 
  0.12500000  0.62500000  0.41666667 
  0.12500000  0.62500000  0.50000000 
  0.12500000  0.62500000  0.58333333 
  0.12500000  0.62500000  0.66666667 
  0.12500000  0.62500000  0.75000000 
  0.12500000  0.62500000  0.83333333 
  0.12500000  0.62500000  0.91666667 
  0.12500000  0.75000000  0.00000000 
  0.12500000  0.75000000  0.08333333 
  0.12500000  0.75000000  0.16666667 
  0.12500000  0.75000000  0.25000000 
  0.12500000  0.75000000  0.33333333 
  0.12500000  0.75000000  0.41666667 
  0.12500000  0.75000000  0.50000000 
  0.12500000  0.75000000  0.58333333 
  0.12500000  0.75000000  0.66666667 
  0.12500000  0.75000000  0.75000000 
  0.12500000  0.75000000  0.83333333 
  0.12500000  0.75000000  0.91666667 
  0.12500000  0.87500000  0.00000000 
  0.12500000  0.87500000  0.08333333 
  0.12500000  0.87500000  0.16666667 
  0.12500000  0.87500000  0.25000000 
  0.12500000  0.87500000  0.33333333 
  0.12500000  0.87500000  0.41666667 
  0.12500000  0.87500000  0.50000000 
  0.12500000  0.87500000  0.58333333 
  0.12500000  0.87500000  0.66666667 
  0.12500000  0.87500000  0.75000000 
  0.12500000  0.87500000  0.83333333 
  0.12500000  0.87500000  0.91666667 
  0.25000000  0.00000000  0.00000000 
  0.25000000  0.00000000  0.08333333 
  0.25000000  0.00000000  0.16666667 
  0.25000000  0.00000000  0.25000000 
  0.25000000  0.00000000  0.33333333 
  0.25000000  0.00000000  0.41666667 
  0.25000000  0.00000000  0.50000000 
  0.25000000  0.00000000  0.58333333 
  0.25000000  0.00000000  0.66666667 
  0.25000000  0.00000000  0.75000000 
  0.25000000  0.00000000  0.83333333 
  0.25000000  0.00000000  0.91666667 
  0.25000000  0.12500000  0.00000000 
  0.25000000  0.12500000  0.08333333 
  0.25000000  0.12500000  0.16666667 
  0.25000000  0.12500000  0.25000000 
  0.25000000  0.12500000  0.33333333 
  0.25000000  0.12500000  0.41666667 
  0.25000000  0.12500000  0.50000000 
  0.25000000  0.12500000  0.58333333 
  0.25000000  0.12500000  0.66666667 
  0.25000000  0.12500000  0.75000000 
  0.25000000  0.12500000  0.83333333 
  0.25000000  0.12500000  0.91666667 
  0.25000000  0.25000000  0.00000000 
  0.25000000  0.25000000  0.08333333 
  0.25000000  0.25000000  0.16666667 
  0.25000000  0.25000000  0.25000000 
  0.25000000  0.25000000  0.33333333 
  0.25000000  0.25000000  0.41666667 
  0.25000000  0.25000000  0.50000000 
  0.25000000  0.25000000  0.58333333 
  0.25000000  0.25000000  0.66666667 
  0.25000000  0.25000000  0.75000000 
  0.25000000  0.25000000  0.83333333 
  0.25000000  0.25000000  0.91666667 
  0.25000000  0.37500000  0.00000000 
  0.25000000  0.37500000  0.08333333 
  0.25000000  0.37500000  0.16666667 
  0.25000000  0.37500000  0.25000000 
  0.25000000  0.37500000  0.33333333 
  0.25000000  0.37500000  0.41666667 
  0.25000000  0.37500000  0.50000000 
  0.25000000  0.37500000  0.58333333 
  0.25000000  0.37500000  0.66666667 
  0.25000000  0.37500000  0.75000000 
  0.25000000  0.37500000  0.83333333 
  0.25000000  0.37500000  0.91666667 
  0.25000000  0.50000000  0.00000000 
  0.25000000  0.50000000  0.08333333 
  0.25000000  0.50000000  0.16666667 
  0.25000000  0.50000000  0.25000000 
  0.25000000  0.50000000  0.33333333 
  0.25000000  0.50000000  0.41666667 
  0.25000000  0.50000000  0.50000000 
  0.25000000  0.50000000  0.58333333 
  0.25000000  0.50000000  0.66666667 
  0.25000000  0.50000000  0.75000000 
  0.25000000  0.50000000  0.83333333 
  0.25000000  0.50000000  0.91666667 
  0.25000000  0.62500000  0.00000000 
  0.25000000  0.62500000  0.08333333 
  0.25000000  0.62500000  0.16666667 
  0.25000000  0.62500000  0.25000000 
  0.25000000  0.62500000  0.33333333 
  0.25000000  0.62500000  0.41666667 
  0.25000000  0.62500000  0.50000000 
  0.25000000  0.62500000  0.58333333 
  0.25000000  0.62500000  0.66666667 
  0.25000000  0.62500000  0.75000000 
  0.25000000  0.62500000  0.83333333 
  0.25000000  0.62500000  0.91666667 
  0.25000000  0.75000000  0.00000000 
  0.25000000  0.75000000  0.08333333 
  0.25000000  0.75000000  0.16666667 
  0.25000000  0.75000000  0.25000000 
  0.25000000  0.75000000  0.33333333 
  0.25000000  0.75000000  0.41666667 
  0.25000000  0.75000000  0.50000000 
  0.25000000  0.75000000  0.58333333 
  0.25000000  0.75000000  0.66666667 
  0.25000000  0.75000000  0.75000000 
  0.25000000  0.75000000  0.83333333 
  0.25000000  0.75000000  0.91666667 
  0.25000000  0.87500000  0.00000000 
  0.25000000  0.87500000  0.08333333 
  0.25000000  0.87500000  0.16666667 
  0.25000000  0.87500000  0.25000000 
  0.25000000  0.87500000  0.33333333 
  0.25000000  0.87500000  0.41666667 
  0.25000000  0.87500000  0.50000000 
  0.25000000  0.87500000  0.58333333 
  0.25000000  0.87500000  0.66666667 
  0.25000000  0.87500000  0.75000000 
  0.25000000  0.87500000  0.83333333 
  0.25000000  0.87500000  0.91666667 
  0.37500000  0.00000000  0.00000000 
  0.37500000  0.00000000  0.08333333 
  0.37500000  0.00000000  0.16666667 
  0.37500000  0.00000000  0.25000000 
  0.37500000  0.00000000  0.33333333 
  0.37500000  0.00000000  0.41666667 
  0.37500000  0.00000000  0.50000000 
  0.37500000  0.00000000  0.58333333 
  0.37500000  0.00000000  0.66666667 
  0.37500000  0.00000000  0.75000000 
  0.37500000  0.00000000  0.83333333 
  0.37500000  0.00000000  0.91666667 
  0.37500000  0.12500000  0.00000000 
  0.37500000  0.12500000  0.08333333 
  0.37500000  0.12500000  0.16666667 
  0.37500000  0.12500000  0.25000000 
  0.37500000  0.12500000  0.33333333 
  0.37500000  0.12500000  0.41666667 
  0.37500000  0.12500000  0.50000000 
  0.37500000  0.12500000  0.58333333 
  0.37500000  0.12500000  0.66666667 
  0.37500000  0.12500000  0.75000000 
  0.37500000  0.12500000  0.83333333 
  0.37500000  0.12500000  0.91666667 
  0.37500000  0.25000000  0.00000000 
  0.37500000  0.25000000  0.08333333 
  0.37500000  0.25000000  0.16666667 
  0.37500000  0.25000000  0.25000000 
  0.37500000  0.25000000  0.33333333 
  0.37500000  0.25000000  0.41666667 
  0.37500000  0.25000000  0.50000000 
  0.37500000  0.25000000  0.58333333 
  0.37500000  0.25000000  0.66666667 
  0.37500000  0.25000000  0.75000000 
  0.37500000  0.25000000  0.83333333 
  0.37500000  0.25000000  0.91666667 
  0.37500000  0.37500000  0.00000000 
  0.37500000  0.37500000  0.08333333 
  0.37500000  0.37500000  0.16666667 
  0.37500000  0.37500000  0.25000000 
  0.37500000  0.37500000  0.33333333 
  0.37500000  0.37500000  0.41666667 
  0.37500000  0.37500000  0.50000000 
  0.37500000  0.37500000  0.58333333 
  0.37500000  0.37500000  0.66666667 
  0.37500000  0.37500000  0.75000000 
  0.37500000  0.37500000  0.83333333 
  0.37500000  0.37500000  0.91666667 
  0.37500000  0.50000000  0.00000000 
  0.37500000  0.50000000  0.08333333 
  0.37500000  0.50000000  0.16666667 
  0.37500000  0.50000000  0.25000000 
  0.37500000  0.50000000  0.33333333 
  0.37500000  0.50000000  0.41666667 
  0.37500000  0.50000000  0.50000000 
  0.37500000  0.50000000  0.58333333 
  0.37500000  0.50000000  0.66666667 
  0.37500000  0.50000000  0.75000000 
  0.37500000  0.50000000  0.83333333 
  0.37500000  0.50000000  0.91666667 
  0.37500000  0.62500000  0.00000000 
  0.37500000  0.62500000  0.08333333 
  0.37500000  0.62500000  0.16666667 
  0.37500000  0.62500000  0.25000000 
  0.37500000  0.62500000  0.33333333 
  0.37500000  0.62500000  0.41666667 
  0.37500000  0.62500000  0.50000000 
  0.37500000  0.62500000  0.58333333 
  0.37500000  0.62500000  0.66666667 
  0.37500000  0.62500000  0.75000000 
  0.37500000  0.62500000  0.83333333 
  0.37500000  0.62500000  0.91666667 
  0.37500000  0.75000000  0.00000000 
  0.37500000  0.75000000  0.08333333 
  0.37500000  0.75000000  0.16666667 
  0.37500000  0.75000000  0.25000000 
  0.37500000  0.75000000  0.33333333 
  0.37500000  0.75000000  0.41666667 
  0.37500000  0.75000000  0.50000000 
  0.37500000  0.75000000  0.58333333 
  0.37500000  0.75000000  0.66666667 
  0.37500000  0.75000000  0.75000000 
  0.37500000  0.75000000  0.83333333 
  0.37500000  0.75000000  0.91666667 
  0.37500000  0.87500000  0.00000000 
  0.37500000  0.87500000  0.08333333 
  0.37500000  0.87500000  0.16666667 
  0.37500000  0.87500000  0.25000000 
  0.37500000  0.87500000  0.33333333 
  0.37500000  0.87500000  0.41666667 
  0.37500000  0.87500000  0.50000000 
  0.37500000  0.87500000  0.58333333 
  0.37500000  0.87500000  0.66666667 
  0.37500000  0.87500000  0.75000000 
  0.37500000  0.87500000  0.83333333 
  0.37500000  0.87500000  0.91666667 
  0.50000000  0.00000000  0.00000000 
  0.50000000  0.00000000  0.08333333 
  0.50000000  0.00000000  0.16666667 
  0.50000000  0.00000000  0.25000000 
  0.50000000  0.00000000  0.33333333 
  0.50000000  0.00000000  0.41666667 
  0.50000000  0.00000000  0.50000000 
  0.50000000  0.00000000  0.58333333 
  0.50000000  0.00000000  0.66666667 
  0.50000000  0.00000000  0.75000000 
  0.50000000  0.00000000  0.83333333 
  0.50000000  0.00000000  0.91666667 
  0.50000000  0.12500000  0.00000000 
  0.50000000  0.12500000  0.08333333 
  0.50000000  0.12500000  0.16666667 
  0.50000000  0.12500000  0.25000000 
  0.50000000  0.12500000  0.33333333 
  0.50000000  0.12500000  0.41666667 
  0.50000000  0.12500000  0.50000000 
  0.50000000  0.12500000  0.58333333 
  0.50000000  0.12500000  0.66666667 
  0.50000000  0.12500000  0.75000000 
  0.50000000  0.12500000  0.83333333 
  0.50000000  0.12500000  0.91666667 
  0.50000000  0.25000000  0.00000000 
  0.50000000  0.25000000  0.08333333 
  0.50000000  0.25000000  0.16666667 
  0.50000000  0.25000000  0.25000000 
  0.50000000  0.25000000  0.33333333 
  0.50000000  0.25000000  0.41666667 
  0.50000000  0.25000000  0.50000000 
  0.50000000  0.25000000  0.58333333 
  0.50000000  0.25000000  0.66666667 
  0.50000000  0.25000000  0.75000000 
  0.50000000  0.25000000  0.83333333 
  0.50000000  0.25000000  0.91666667 
  0.50000000  0.37500000  0.00000000 
  0.50000000  0.37500000  0.08333333 
  0.50000000  0.37500000  0.16666667 
  0.50000000  0.37500000  0.25000000 
  0.50000000  0.37500000  0.33333333 
  0.50000000  0.37500000  0.41666667 
  0.50000000  0.37500000  0.50000000 
  0.50000000  0.37500000  0.58333333 
  0.50000000  0.37500000  0.66666667 
  0.50000000  0.37500000  0.75000000 
  0.50000000  0.37500000  0.83333333 
  0.50000000  0.37500000  0.91666667 
  0.50000000  0.50000000  0.00000000 
  0.50000000  0.50000000  0.08333333 
  0.50000000  0.50000000  0.16666667 
  0.50000000  0.50000000  0.25000000 
  0.50000000  0.50000000  0.33333333 
  0.50000000  0.50000000  0.41666667 
  0.50000000  0.50000000  0.50000000 
  0.50000000  0.50000000  0.58333333 
  0.50000000  0.50000000  0.66666667 
  0.50000000  0.50000000  0.75000000 
  0.50000000  0.50000000  0.83333333 
  0.50000000  0.50000000  0.91666667 
  0.50000000  0.62500000  0.00000000 
  0.50000000  0.62500000  0.08333333 
  0.50000000  0.62500000  0.16666667 
  0.50000000  0.62500000  0.25000000 
  0.50000000  0.62500000  0.33333333 
  0.50000000  0.62500000  0.41666667 
  0.50000000  0.62500000  0.50000000 
  0.50000000  0.62500000  0.58333333 
  0.50000000  0.62500000  0.66666667 
  0.50000000  0.62500000  0.75000000 
  0.50000000  0.62500000  0.83333333 
  0.50000000  0.62500000  0.91666667 
  0.50000000  0.75000000  0.00000000 
  0.50000000  0.75000000  0.08333333 
  0.50000000  0.75000000  0.16666667 
  0.50000000  0.75000000  0.25000000 
  0.50000000  0.75000000  0.33333333 
  0.50000000  0.75000000  0.41666667 
  0.50000000  0.75000000  0.50000000 
  0.50000000  0.75000000  0.58333333 
  0.50000000  0.75000000  0.66666667 
  0.50000000  0.75000000  0.75000000 
  0.50000000  0.75000000  0.83333333 
  0.50000000  0.75000000  0.91666667 
  0.50000000  0.87500000  0.00000000 
  0.50000000  0.87500000  0.08333333 
  0.50000000  0.87500000  0.16666667 
  0.50000000  0.87500000  0.25000000 
  0.50000000  0.87500000  0.33333333 
  0.50000000  0.87500000  0.41666667 
  0.50000000  0.87500000  0.50000000 
  0.50000000  0.87500000  0.58333333 
  0.50000000  0.87500000  0.66666667 
  0.50000000  0.87500000  0.75000000 
  0.50000000  0.87500000  0.83333333 
  0.50000000  0.87500000  0.91666667 
  0.62500000  0.00000000  0.00000000 
  0.62500000  0.00000000  0.08333333 
  0.62500000  0.00000000  0.16666667 
  0.62500000  0.00000000  0.25000000 
  0.62500000  0.00000000  0.33333333 
  0.62500000  0.00000000  0.41666667 
  0.62500000  0.00000000  0.50000000 
  0.62500000  0.00000000  0.58333333 
  0.62500000  0.00000000  0.66666667 
  0.62500000  0.00000000  0.75000000 
  0.62500000  0.00000000  0.83333333 
  0.62500000  0.00000000  0.91666667 
  0.62500000  0.12500000  0.00000000 
  0.62500000  0.12500000  0.08333333 
  0.62500000  0.12500000  0.16666667 
  0.62500000  0.12500000  0.25000000 
  0.62500000  0.12500000  0.33333333 
  0.62500000  0.12500000  0.41666667 
  0.62500000  0.12500000  0.50000000 
  0.62500000  0.12500000  0.58333333 
  0.62500000  0.12500000  0.66666667 
  0.62500000  0.12500000  0.75000000 
  0.62500000  0.12500000  0.83333333 
  0.62500000  0.12500000  0.91666667 
  0.62500000  0.25000000  0.00000000 
  0.62500000  0.25000000  0.08333333 
  0.62500000  0.25000000  0.16666667 
  0.62500000  0.25000000  0.25000000 
  0.62500000  0.25000000  0.33333333 
  0.62500000  0.25000000  0.41666667 
  0.62500000  0.25000000  0.50000000 
  0.62500000  0.25000000  0.58333333 
  0.62500000  0.25000000  0.66666667 
  0.62500000  0.25000000  0.75000000 
  0.62500000  0.25000000  0.83333333 
  0.62500000  0.25000000  0.91666667 
  0.62500000  0.37500000  0.00000000 
  0.62500000  0.37500000  0.08333333 
  0.62500000  0.37500000  0.16666667 
  0.62500000  0.37500000  0.25000000 
  0.62500000  0.37500000  0.33333333 
  0.62500000  0.37500000  0.41666667 
  0.62500000  0.37500000  0.50000000 
  0.62500000  0.37500000  0.58333333 
  0.62500000  0.37500000  0.66666667 
  0.62500000  0.37500000  0.75000000 
  0.62500000  0.37500000  0.83333333 
  0.62500000  0.37500000  0.91666667 
  0.62500000  0.50000000  0.00000000 
  0.62500000  0.50000000  0.08333333 
  0.62500000  0.50000000  0.16666667 
  0.62500000  0.50000000  0.25000000 
  0.62500000  0.50000000  0.33333333 
  0.62500000  0.50000000  0.41666667 
  0.62500000  0.50000000  0.50000000 
  0.62500000  0.50000000  0.58333333 
  0.62500000  0.50000000  0.66666667 
  0.62500000  0.50000000  0.75000000 
  0.62500000  0.50000000  0.83333333 
  0.62500000  0.50000000  0.91666667 
  0.62500000  0.62500000  0.00000000 
  0.62500000  0.62500000  0.08333333 
  0.62500000  0.62500000  0.16666667 
  0.62500000  0.62500000  0.25000000 
  0.62500000  0.62500000  0.33333333 
  0.62500000  0.62500000  0.41666667 
  0.62500000  0.62500000  0.50000000 
  0.62500000  0.62500000  0.58333333 
  0.62500000  0.62500000  0.66666667 
  0.62500000  0.62500000  0.75000000 
  0.62500000  0.62500000  0.83333333 
  0.62500000  0.62500000  0.91666667 
  0.62500000  0.75000000  0.00000000 
  0.62500000  0.75000000  0.08333333 
  0.62500000  0.75000000  0.16666667 
  0.62500000  0.75000000  0.25000000 
  0.62500000  0.75000000  0.33333333 
  0.62500000  0.75000000  0.41666667 
  0.62500000  0.75000000  0.50000000 
  0.62500000  0.75000000  0.58333333 
  0.62500000  0.75000000  0.66666667 
  0.62500000  0.75000000  0.75000000 
  0.62500000  0.75000000  0.83333333 
  0.62500000  0.75000000  0.91666667 
  0.62500000  0.87500000  0.00000000 
  0.62500000  0.87500000  0.08333333 
  0.62500000  0.87500000  0.16666667 
  0.62500000  0.87500000  0.25000000 
  0.62500000  0.87500000  0.33333333 
  0.62500000  0.87500000  0.41666667 
  0.62500000  0.87500000  0.50000000 
  0.62500000  0.87500000  0.58333333 
  0.62500000  0.87500000  0.66666667 
  0.62500000  0.87500000  0.75000000 
  0.62500000  0.87500000  0.83333333 
  0.62500000  0.87500000  0.91666667 
  0.75000000  0.00000000  0.00000000 
  0.75000000  0.00000000  0.08333333 
  0.75000000  0.00000000  0.16666667 
  0.75000000  0.00000000  0.25000000 
  0.75000000  0.00000000  0.33333333 
  0.75000000  0.00000000  0.41666667 
  0.75000000  0.00000000  0.50000000 
  0.75000000  0.00000000  0.58333333 
  0.75000000  0.00000000  0.66666667 
  0.75000000  0.00000000  0.75000000 
  0.75000000  0.00000000  0.83333333 
  0.75000000  0.00000000  0.91666667 
  0.75000000  0.12500000  0.00000000 
  0.75000000  0.12500000  0.08333333 
  0.75000000  0.12500000  0.16666667 
  0.75000000  0.12500000  0.25000000 
  0.75000000  0.12500000  0.33333333 
  0.75000000  0.12500000  0.41666667 
  0.75000000  0.12500000  0.50000000 
  0.75000000  0.12500000  0.58333333 
  0.75000000  0.12500000  0.66666667 
  0.75000000  0.12500000  0.75000000 
  0.75000000  0.12500000  0.83333333 
  0.75000000  0.12500000  0.91666667 
  0.75000000  0.25000000  0.00000000 
  0.75000000  0.25000000  0.08333333 
  0.75000000  0.25000000  0.16666667 
  0.75000000  0.25000000  0.25000000 
  0.75000000  0.25000000  0.33333333 
  0.75000000  0.25000000  0.41666667 
  0.75000000  0.25000000  0.50000000 
  0.75000000  0.25000000  0.58333333 
  0.75000000  0.25000000  0.66666667 
  0.75000000  0.25000000  0.75000000 
  0.75000000  0.25000000  0.83333333 
  0.75000000  0.25000000  0.91666667 
  0.75000000  0.37500000  0.00000000 
  0.75000000  0.37500000  0.08333333 
  0.75000000  0.37500000  0.16666667 
  0.75000000  0.37500000  0.25000000 
  0.75000000  0.37500000  0.33333333 
  0.75000000  0.37500000  0.41666667 
  0.75000000  0.37500000  0.50000000 
  0.75000000  0.37500000  0.58333333 
  0.75000000  0.37500000  0.66666667 
  0.75000000  0.37500000  0.75000000 
  0.75000000  0.37500000  0.83333333 
  0.75000000  0.37500000  0.91666667 
  0.75000000  0.50000000  0.00000000 
  0.75000000  0.50000000  0.08333333 
  0.75000000  0.50000000  0.16666667 
  0.75000000  0.50000000  0.25000000 
  0.75000000  0.50000000  0.33333333 
  0.75000000  0.50000000  0.41666667 
  0.75000000  0.50000000  0.50000000 
  0.75000000  0.50000000  0.58333333 
  0.75000000  0.50000000  0.66666667 
  0.75000000  0.50000000  0.75000000 
  0.75000000  0.50000000  0.83333333 
  0.75000000  0.50000000  0.91666667 
  0.75000000  0.62500000  0.00000000 
  0.75000000  0.62500000  0.08333333 
  0.75000000  0.62500000  0.16666667 
  0.75000000  0.62500000  0.25000000 
  0.75000000  0.62500000  0.33333333 
  0.75000000  0.62500000  0.41666667 
  0.75000000  0.62500000  0.50000000 
  0.75000000  0.62500000  0.58333333 
  0.75000000  0.62500000  0.66666667 
  0.75000000  0.62500000  0.75000000 
  0.75000000  0.62500000  0.83333333 
  0.75000000  0.62500000  0.91666667 
  0.75000000  0.75000000  0.00000000 
  0.75000000  0.75000000  0.08333333 
  0.75000000  0.75000000  0.16666667 
  0.75000000  0.75000000  0.25000000 
  0.75000000  0.75000000  0.33333333 
  0.75000000  0.75000000  0.41666667 
  0.75000000  0.75000000  0.50000000 
  0.75000000  0.75000000  0.58333333 
  0.75000000  0.75000000  0.66666667 
  0.75000000  0.75000000  0.75000000 
  0.75000000  0.75000000  0.83333333 
  0.75000000  0.75000000  0.91666667 
  0.75000000  0.87500000  0.00000000 
  0.75000000  0.87500000  0.08333333 
  0.75000000  0.87500000  0.16666667 
  0.75000000  0.87500000  0.25000000 
  0.75000000  0.87500000  0.33333333 
  0.75000000  0.87500000  0.41666667 
  0.75000000  0.87500000  0.50000000 
  0.75000000  0.87500000  0.58333333 
  0.75000000  0.87500000  0.66666667 
  0.75000000  0.87500000  0.75000000 
  0.75000000  0.87500000  0.83333333 
  0.75000000  0.87500000  0.91666667 
  0.87500000  0.00000000  0.00000000 
  0.87500000  0.00000000  0.08333333 
  0.87500000  0.00000000  0.16666667 
  0.87500000  0.00000000  0.25000000 
  0.87500000  0.00000000  0.33333333 
  0.87500000  0.00000000  0.41666667 
  0.87500000  0.00000000  0.50000000 
  0.87500000  0.00000000  0.58333333 
  0.87500000  0.00000000  0.66666667 
  0.87500000  0.00000000  0.75000000 
  0.87500000  0.00000000  0.83333333 
  0.87500000  0.00000000  0.91666667 
  0.87500000  0.12500000  0.00000000 
  0.87500000  0.12500000  0.08333333 
  0.87500000  0.12500000  0.16666667 
  0.87500000  0.12500000  0.25000000 
  0.87500000  0.12500000  0.33333333 
  0.87500000  0.12500000  0.41666667 
  0.87500000  0.12500000  0.50000000 
  0.87500000  0.12500000  0.58333333 
  0.87500000  0.12500000  0.66666667 
  0.87500000  0.12500000  0.75000000 
  0.87500000  0.12500000  0.83333333 
  0.87500000  0.12500000  0.91666667 
  0.87500000  0.25000000  0.00000000 
  0.87500000  0.25000000  0.08333333 
  0.87500000  0.25000000  0.16666667 
  0.87500000  0.25000000  0.25000000 
  0.87500000  0.25000000  0.33333333 
  0.87500000  0.25000000  0.41666667 
  0.87500000  0.25000000  0.50000000 
  0.87500000  0.25000000  0.58333333 
  0.87500000  0.25000000  0.66666667 
  0.87500000  0.25000000  0.75000000 
  0.87500000  0.25000000  0.83333333 
  0.87500000  0.25000000  0.91666667 
  0.87500000  0.37500000  0.00000000 
  0.87500000  0.37500000  0.08333333 
  0.87500000  0.37500000  0.16666667 
  0.87500000  0.37500000  0.25000000 
  0.87500000  0.37500000  0.33333333 
  0.87500000  0.37500000  0.41666667 
  0.87500000  0.37500000  0.50000000 
  0.87500000  0.37500000  0.58333333 
  0.87500000  0.37500000  0.66666667 
  0.87500000  0.37500000  0.75000000 
  0.87500000  0.37500000  0.83333333 
  0.87500000  0.37500000  0.91666667 
  0.87500000  0.50000000  0.00000000 
  0.87500000  0.50000000  0.08333333 
  0.87500000  0.50000000  0.16666667 
  0.87500000  0.50000000  0.25000000 
  0.87500000  0.50000000  0.33333333 
  0.87500000  0.50000000  0.41666667 
  0.87500000  0.50000000  0.50000000 
  0.87500000  0.50000000  0.58333333 
  0.87500000  0.50000000  0.66666667 
  0.87500000  0.50000000  0.75000000 
  0.87500000  0.50000000  0.83333333 
  0.87500000  0.50000000  0.91666667 
  0.87500000  0.62500000  0.00000000 
  0.87500000  0.62500000  0.08333333 
  0.87500000  0.62500000  0.16666667 
  0.87500000  0.62500000  0.25000000 
  0.87500000  0.62500000  0.33333333 
  0.87500000  0.62500000  0.41666667 
  0.87500000  0.62500000  0.50000000 
  0.87500000  0.62500000  0.58333333 
  0.87500000  0.62500000  0.66666667 
  0.87500000  0.62500000  0.75000000 
  0.87500000  0.62500000  0.83333333 
  0.87500000  0.62500000  0.91666667 
  0.87500000  0.75000000  0.00000000 
  0.87500000  0.75000000  0.08333333 
  0.87500000  0.75000000  0.16666667 
  0.87500000  0.75000000  0.25000000 
  0.87500000  0.75000000  0.33333333 
  0.87500000  0.75000000  0.41666667 
  0.87500000  0.75000000  0.50000000 
  0.87500000  0.75000000  0.58333333 
  0.87500000  0.75000000  0.66666667 
  0.87500000  0.75000000  0.75000000 
  0.87500000  0.75000000  0.83333333 
  0.87500000  0.75000000  0.91666667 
  0.87500000  0.87500000  0.00000000 
  0.87500000  0.87500000  0.08333333 