&CONTROL
  calculation='scf',
  restart_mode='from_scratch',
  outdir='./',
  prefix='rutile',
  forc_conv_thr=1.0d-5,
  etot_conv_thr=1.0d-8,
  pseudo_dir='/share/home/rutile/',
/

&SYSTEM
  ibrav=6,
  celldm(1) = 8.805534179d0,
  celldm(3) = 0.637035188d0,
  nat=6,
  ntyp=2,
  ecutwfc=200,
  nbnd = 34,
/

&ELECTRONS
  conv_thr=1d-12,
  mixing_beta=0.7d0,
/

ATOMIC_SPECIES
  Ti 47.867000d0 Ti.IV.pbe-cep_ox.UPF
  O 15.999400d0 O.pbe.NC-cep.UPF

K_POINTS {automatic}
  8 8 12 0 0 0

ATOMIC_POSITIONS (crystal)
Ti            0.5000000000        0.5000000000        0.5000000000
Ti            0.0000000000        0.0000000000        0.0000000000
O             0.8042084148        0.1957915552        0.5000000000
O             0.1957915552        0.8042084148        0.5000000000
O             0.3042084448        0.3042084448       -0.0000000000
O             0.6957915852        0.6957915852       -0.0000000000

