anatase
&CONTROL
  calculation='nscf',
  restart_mode='from_scratch',
  outdir='./tmp',
  prefix='tio2',
  pseudo_dir=/data/home/espresso/pseudo,
  wf_collect = .true.
/

&SYSTEM
  ibrav=7,
  celldm(1) = 7.1535,
  celldm(3) = 2.5145,
  nat=6,
  ntyp=2,
  ecutwfc=200,
  nbnd=34
/

&ELECTRONS
  conv_thr=1d-11,
  mixing_beta=0.7d0,
  diagonalization = 'david'
  diago_full_acc = .true.
/

ATOMIC_SPECIES
  O 15.999400d0 O.pbe.NC-cep.UPF
  Ti 47.867000d0 Ti.IV.pbe-cep_ox.UPF 

ATOMIC_POSITIONS {alat}
Ti       0.000000000   0.000000000   0.000000000
Ti       0.000000000   0.500000000   0.628625000
O        0.000000000   0.000000000   0.527413022
O        0.000000000   0.500000000   1.156038022
O        0.500000000   0.500000000   0.729836978
O        0.000000000   0.500000000   0.101211978

K_POINTS crystal
512
  0.00000000  0.00000000  0.00000000  1.953125e-03 
  0.00000000  0.00000000  0.12500000  1.953125e-03 
  0.00000000  0.00000000  0.25000000  1.953125e-03 
  0.00000000  0.00000000  0.37500000  1.953125e-03 
  0.00000000  0.00000000  0.50000000  1.953125e-03 
  0.00000000  0.00000000  0.62500000  1.953125e-03 
  0.00000000  0.00000000  0.75000000  1.953125e-03 
  0.00000000  0.00000000  0.87500000  1.953125e-03 
  0.00000000  0.12500000  0.00000000  1.953125e-03 
  0.00000000  0.12500000  0.12500000  1.953125e-03 
  0.00000000  0.12500000  0.25000000  1.953125e-03 
  0.00000000  0.12500000  0.37500000  1.953125e-03 
  0.00000000  0.12500000  0.50000000  1.953125e-03 
  0.00000000  0.12500000  0.62500000  1.953125e-03 
  0.00000000  0.12500000  0.75000000  1.953125e-03 
  0.00000000  0.12500000  0.87500000  1.953125e-03 
  0.00000000  0.25000000  0.00000000  1.953125e-03 
  0.00000000  0.25000000  0.12500000  1.953125e-03 
  0.00000000  0.25000000  0.25000000  1.953125e-03 
  0.00000000  0.25000000  0.37500000  1.953125e-03 
  0.00000000  0.25000000  0.50000000  1.953125e-03 
  0.00000000  0.25000000  0.62500000  1.953125e-03 
  0.00000000  0.25000000  0.75000000  1.953125e-03 
  0.00000000  0.25000000  0.87500000  1.953125e-03 
  0.00000000  0.37500000  0.00000000  1.953125e-03 
  0.00000000  0.37500000  0.12500000  1.953125e-03 
  0.00000000  0.37500000  0.25000000  1.953125e-03 
  0.00000000  0.37500000  0.37500000  1.953125e-03 
  0.00000000  0.37500000  0.50000000  1.953125e-03 
  0.00000000  0.37500000  0.62500000  1.953125e-03 
  0.00000000  0.37500000  0.75000000  1.953125e-03 
  0.00000000  0.37500000  0.87500000  1.953125e-03 
  0.00000000  0.50000000  0.00000000  1.953125e-03 
  0.00000000  0.50000000  0.12500000  1.953125e-03 
  0.00000000  0.50000000  0.25000000  1.953125e-03 
  0.00000000  0.50000000  0.37500000  1.953125e-03 
  0.00000000  0.50000000  0.50000000  1.953125e-03 
  0.00000000  0.50000000  0.62500000  1.953125e-03 
  0.00000000  0.50000000  0.75000000  1.953125e-03 
  0.00000000  0.50000000  0.87500000  1.953125e-03 
  0.00000000  0.62500000  0.00000000  1.953125e-03 
  0.00000000  0.62500000  0.12500000  1.953125e-03 
  0.00000000  0.62500000  0.25000000  1.953125e-03 
  0.00000000  0.62500000  0.37500000  1.953125e-03 
  0.00000000  0.62500000  0.50000000  1.953125e-03 
  0.00000000  0.62500000  0.62500000  1.953125e-03 
  0.00000000  0.62500000  0.75000000  1.953125e-03 
  0.00000000  0.62500000  0.87500000  1.953125e-03 
  0.00000000  0.75000000  0.00000000  1.953125e-03 
  0.00000000  0.75000000  0.12500000  1.953125e-03 
  0.00000000  0.75000000  0.25000000  1.953125e-03 
  0.00000000  0.75000000  0.37500000  1.953125e-03 
  0.00000000  0.75000000  0.50000000  1.953125e-03 
  0.00000000  0.75000000  0.62500000  1.953125e-03 
  0.00000000  0.75000000  0.75000000  1.953125e-03 
  0.00000000  0.75000000  0.87500000  1.953125e-03 
  0.00000000  0.87500000  0.00000000  1.953125e-03 
  0.00000000  0.87500000  0.12500000  1.953125e-03 
  0.00000000  0.87500000  0.25000000  1.953125e-03 
  0.00000000  0.87500000  0.37500000  1.953125e-03 
  0.00000000  0.87500000  0.50000000  1.953125e-03 
  0.00000000  0.87500000  0.62500000  1.953125e-03 
  0.00000000  0.87500000  0.75000000  1.953125e-03 
  0.00000000  0.87500000  0.87500000  1.953125e-03 
  0.12500000  0.00000000  0.00000000  1.953125e-03 
  0.12500000  0.00000000  0.12500000  1.953125e-03 
  0.12500000  0.00000000  0.25000000  1.953125e-03 
  0.12500000  0.00000000  0.37500000  1.953125e-03 
  0.12500000  0.00000000  0.50000000  1.953125e-03 
  0.12500000  0.00000000  0.62500000  1.953125e-03 
  0.12500000  0.00000000  0.75000000  1.953125e-03 
  0.12500000  0.00000000  0.87500000  1.953125e-03 
  0.12500000  0.12500000  0.00000000  1.953125e-03 
  0.12500000  0.12500000  0.12500000  1.953125e-03 
  0.12500000  0.12500000  0.25000000  1.953125e-03 
  0.12500000  0.12500000  0.37500000  1.953125e-03 
  0.12500000  0.12500000  0.50000000  1.953125e-03 
  0.12500000  0.12500000  0.62500000  1.953125e-03 
  0.12500000  0.12500000  0.75000000  1.953125e-03 
  0.12500000  0.12500000  0.87500000  1.953125e-03 
  0.12500000  0.25000000  0.00000000  1.953125e-03 
  0.12500000  0.25000000  0.12500000  1.953125e-03 
  0.12500000  0.25000000  0.25000000  1.953125e-03 
  0.12500000  0.25000000  0.37500000  1.953125e-03 
  0.12500000  0.25000000  0.50000000  1.953125e-03 
  0.12500000  0.25000000  0.62500000  1.953125e-03 
  0.12500000  0.25000000  0.75000000  1.953125e-03 
  0.12500000  0.25000000  0.87500000  1.953125e-03 
  0.12500000  0.37500000  0.00000000  1.953125e-03 
  0.12500000  0.37500000  0.12500000  1.953125e-03 
  0.12500000  0.37500000  0.25000000  1.953125e-03 
  0.12500000  0.37500000  0.37500000  1.953125e-03 
  0.12500000  0.37500000  0.50000000  1.953125e-03 
  0.12500000  0.37500000  0.62500000  1.953125e-03 
  0.12500000  0.37500000  0.75000000  1.953125e-03 
  0.12500000  0.37500000  0.87500000  1.953125e-03 
  0.12500000  0.50000000  0.00000000  1.953125e-03 
  0.12500000  0.50000000  0.12500000  1.953125e-03 
  0.12500000  0.50000000  0.25000000  1.953125e-03 
  0.12500000  0.50000000  0.37500000  1.953125e-03 
  0.12500000  0.50000000  0.50000000  1.953125e-03 
  0.12500000  0.50000000  0.62500000  1.953125e-03 
  0.12500000  0.50000000  0.75000000  1.953125e-03 
  0.12500000  0.50000000  0.87500000  1.953125e-03 
  0.12500000  0.62500000  0.00000000  1.953125e-03 
  0.12500000  0.62500000  0.12500000  1.953125e-03 
  0.12500000  0.62500000  0.25000000  1.953125e-03 
  0.12500000  0.62500000  0.37500000  1.953125e-03 
  0.12500000  0.62500000  0.50000000  1.953125e-03 
  0.12500000  0.62500000  0.62500000  1.953125e-03 
  0.12500000  0.62500000  0.75000000  1.953125e-03 
  0.12500000  0.62500000  0.87500000  1.953125e-03 
  0.12500000  0.75000000  0.00000000  1.953125e-03 
  0.12500000  0.75000000  0.12500000  1.953125e-03 
  0.12500000  0.75000000  0.25000000  1.953125e-03 
  0.12500000  0.75000000  0.37500000  1.953125e-03 
  0.12500000  0.75000000  0.50000000  1.953125e-03 
  0.12500000  0.75000000  0.62500000  1.953125e-03 
  0.12500000  0.75000000  0.75000000  1.953125e-03 
  0.12500000  0.75000000  0.87500000  1.953125e-03 
  0.12500000  0.87500000  0.00000000  1.953125e-03 
  0.12500000  0.87500000  0.12500000  1.953125e-03 
  0.12500000  0.87500000  0.25000000  1.953125e-03 
  0.12500000  0.87500000  0.37500000  1.953125e-03 
  0.12500000  0.87500000  0.50000000  1.953125e-03 
  0.12500000  0.87500000  0.62500000  1.953125e-03 
  0.12500000  0.87500000  0.75000000  1.953125e-03 
  0.12500000  0.87500000  0.87500000  1.953125e-03 
  0.25000000  0.00000000  0.00000000  1.953125e-03 
  0.25000000  0.00000000  0.12500000  1.953125e-03 
  0.25000000  0.00000000  0.25000000  1.953125e-03 
  0.25000000  0.00000000  0.37500000  1.953125e-03 
  0.25000000  0.00000000  0.50000000  1.953125e-03 
  0.25000000  0.00000000  0.62500000  1.953125e-03 
  0.25000000  0.00000000  0.75000000  1.953125e-03 
  0.25000000  0.00000000  0.87500000  1.953125e-03 
  0.25000000  0.12500000  0.00000000  1.953125e-03 
  0.25000000  0.12500000  0.12500000  1.953125e-03 
  0.25000000  0.12500000  0.25000000  1.953125e-03 
  0.25000000  0.12500000  0.37500000  1.953125e-03 
  0.25000000  0.12500000  0.50000000  1.953125e-03 
  0.25000000  0.12500000  0.62500000  1.953125e-03 
  0.25000000  0.12500000  0.75000000  1.953125e-03 
  0.25000000  0.12500000  0.87500000  1.953125e-03 
  0.25000000  0.25000000  0.00000000  1.953125e-03 
  0.25000000  0.25000000  0.12500000  1.953125e-03 
  0.25000000  0.25000000  0.25000000  1.953125e-03 
  0.25000000  0.25000000  0.37500000  1.953125e-03 
  0.25000000  0.25000000  0.50000000  1.953125e-03 
  0.25000000  0.25000000  0.62500000  1.953125e-03 
  0.25000000  0.25000000  0.75000000  1.953125e-03 
  0.25000000  0.25000000  0.87500000  1.953125e-03 
  0.25000000  0.37500000  0.00000000  1.953125e-03 
  0.25000000  0.37500000  0.12500000  1.953125e-03 
  0.25000000  0.37500000  0.25000000  1.953125e-03 
  0.25000000  0.37500000  0.37500000  1.953125e-03 
  0.25000000  0.37500000  0.50000000  1.953125e-03 
  0.25000000  0.37500000  0.62500000  1.953125e-03 
  0.25000000  0.37500000  0.75000000  1.953125e-03 
  0.25000000  0.37500000  0.87500000  1.953125e-03 
  0.25000000  0.50000000  0.00000000  1.953125e-03 
  0.25000000  0.50000000  0.12500000  1.953125e-03 
  0.25000000  0.50000000  0.25000000  1.953125e-03 
  0.25000000  0.50000000  0.37500000  1.953125e-03 
  0.25000000  0.50000000  0.50000000  1.953125e-03 
  0.25000000  0.50000000  0.62500000  1.953125e-03 
  0.25000000  0.50000000  0.75000000  1.953125e-03 
  0.25000000  0.50000000  0.87500000  1.953125e-03 
  0.25000000  0.62500000  0.00000000  1.953125e-03 
  0.25000000  0.62500000  0.12500000  1.953125e-03 
  0.25000000  0.62500000  0.25000000  1.953125e-03 
  0.25000000  0.62500000  0.37500000  1.953125e-03 
  0.25000000  0.62500000  0.50000000  1.953125e-03 
  0.25000000  0.62500000  0.62500000  1.953125e-03 
  0.25000000  0.62500000  0.75000000  1.953125e-03 
  0.25000000  0.62500000  0.87500000  1.953125e-03 
  0.25000000  0.75000000  0.00000000  1.953125e-03 
  0.25000000  0.75000000  0.12500000  1.953125e-03 
  0.25000000  0.75000000  0.25000000  1.953125e-03 
  0.25000000  0.75000000  0.37500000  1.953125e-03 
  0.25000000  0.75000000  0.50000000  1.953125e-03 
  0.25000000  0.75000000  0.62500000  1.953125e-03 
  0.25000000  0.75000000  0.75000000  1.953125e-03 
  0.25000000  0.75000000  0.87500000  1.953125e-03 
  0.25000000  0.87500000  0.00000000  1.953125e-03 
  0.25000000  0.87500000  0.12500000  1.953125e-03 
  0.25000000  0.87500000  0.25000000  1.953125e-03 
  0.25000000  0.87500000  0.37500000  1.953125e-03 
  0.25000000  0.87500000  0.50000000  1.953125e-03 
  0.25000000  0.87500000  0.62500000  1.953125e-03 
  0.25000000  0.87500000  0.75000000  1.953125e-03 
  0.25000000  0.87500000  0.87500000  1.953125e-03 
  0.37500000  0.00000000  0.00000000  1.953125e-03 
  0.37500000  0.00000000  0.12500000  1.953125e-03 
  0.37500000  0.00000000  0.25000000  1.953125e-03 
  0.37500000  0.00000000  0.37500000  1.953125e-03 
  0.37500000  0.00000000  0.50000000  1.953125e-03 
  0.37500000  0.00000000  0.62500000  1.953125e-03 
  0.37500000  0.00000000  0.75000000  1.953125e-03 
  0.37500000  0.00000000  0.87500000  1.953125e-03 
  0.37500000  0.12500000  0.00000000  1.953125e-03 
  0.37500000  0.12500000  0.12500000  1.953125e-03 
  0.37500000  0.12500000  0.25000000  1.953125e-03 
  0.37500000  0.12500000  0.37500000  1.953125e-03 
  0.37500000  0.12500000  0.50000000  1.953125e-03 
  0.37500000  0.12500000  0.62500000  1.953125e-03 
  0.37500000  0.12500000  0.75000000  1.953125e-03 
  0.37500000  0.12500000  0.87500000  1.953125e-03 
  0.37500000  0.25000000  0.00000000  1.953125e-03 
  0.37500000  0.25000000  0.12500000  1.953125e-03 
  0.37500000  0.25000000  0.25000000  1.953125e-03 
  0.37500000  0.25000000  0.37500000  1.953125e-03 
  0.37500000  0.25000000  0.50000000  1.953125e-03 
  0.37500000  0.25000000  0.62500000  1.953125e-03 
  0.37500000  0.25000000  0.75000000  1.953125e-03 
  0.37500000  0.25000000  0.87500000  1.953125e-03 
  0.37500000  0.37500000  0.00000000  1.953125e-03 
  0.37500000  0.37500000  0.12500000  1.953125e-03 
  0.37500000  0.37500000  0.25000000  1.953125e-03 
  0.37500000  0.37500000  0.37500000  1.953125e-03 
  0.37500000  0.37500000  0.50000000  1.953125e-03 
  0.37500000  0.37500000  0.62500000  1.953125e-03 
  0.37500000  0.37500000  0.75000000  1.953125e-03 
  0.37500000  0.37500000  0.87500000  1.953125e-03 
  0.37500000  0.50000000  0.00000000  1.953125e-03 
  0.37500000  0.50000000  0.12500000  1.953125e-03 
  0.37500000  0.50000000  0.25000000  1.953125e-03 
  0.37500000  0.50000000  0.37500000  1.953125e-03 
  0.37500000  0.50000000  0.50000000  1.953125e-03 
  0.37500000  0.50000000  0.62500000  1.953125e-03 
  0.37500000  0.50000000  0.75000000  1.953125e-03 
  0.37500000  0.50000000  0.87500000  1.953125e-03 
  0.37500000  0.62500000  0.00000000  1.953125e-03 
  0.37500000  0.62500000  0.12500000  1.953125e-03 
  0.37500000  0.62500000  0.25000000  1.953125e-03 
  0.37500000  0.62500000  0.37500000  1.953125e-03 
  0.37500000  0.62500000  0.50000000  1.953125e-03 
  0.37500000  0.62500000  0.62500000  1.953125e-03 
  0.37500000  0.62500000  0.75000000  1.953125e-03 
  0.37500000  0.62500000  0.87500000  1.953125e-03 
  0.37500000  0.75000000  0.00000000  1.953125e-03 
  0.37500000  0.75000000  0.12500000  1.953125e-03 
  0.37500000  0.75000000  0.25000000  1.953125e-03 
  0.37500000  0.75000000  0.37500000  1.953125e-03 
  0.37500000  0.75000000  0.50000000  1.953125e-03 
  0.37500000  0.75000000  0.62500000  1.953125e-03 
  0.37500000  0.75000000  0.75000000  1.953125e-03 
  0.37500000  0.75000000  0.87500000  1.953125e-03 
  0.37500000  0.87500000  0.00000000  1.953125e-03 
  0.37500000  0.87500000  0.12500000  1.953125e-03 
  0.37500000  0.87500000  0.25000000  1.953125e-03 
  0.37500000  0.87500000  0.37500000  1.953125e-03 
  0.37500000  0.87500000  0.50000000  1.953125e-03 
  0.37500000  0.87500000  0.62500000  1.953125e-03 
  0.37500000  0.87500000  0.75000000  1.953125e-03 
  0.37500000  0.87500000  0.87500000  1.953125e-03 
  0.50000000  0.00000000  0.00000000  1.953125e-03 
  0.50000000  0.00000000  0.12500000  1.953125e-03 
  0.50000000  0.00000000  0.25000000  1.953125e-03 
  0.50000000  0.00000000  0.37500000  1.953125e-03 
  0.50000000  0.00000000  0.50000000  1.953125e-03 
  0.50000000  0.00000000  0.62500000  1.953125e-03 
  0.50000000  0.00000000  0.75000000  1.953125e-03 
  0.50000000  0.00000000  0.87500000  1.953125e-03 
  0.50000000  0.12500000  0.00000000  1.953125e-03 
  0.50000000  0.12500000  0.12500000  1.953125e-03 
  0.50000000  0.12500000  0.25000000  1.953125e-03 
  0.50000000  0.12500000  0.37500000  1.953125e-03 
  0.50000000  0.12500000  0.50000000  1.953125e-03 
  0.50000000  0.12500000  0.62500000  1.953125e-03 
  0.50000000  0.12500000  0.75000000  1.953125e-03 
  0.50000000  0.12500000  0.87500000  1.953125e-03 
  0.50000000  0.25000000  0.00000000  1.953125e-03 
  0.50000000  0.25000000  0.12500000  1.953125e-03 
  0.50000000  0.25000000  0.25000000  1.953125e-03 
  0.50000000  0.25000000  0.37500000  1.953125e-03 
  0.50000000  0.25000000  0.50000000  1.953125e-03 
  0.50000000  0.25000000  0.62500000  1.953125e-03 
  0.50000000  0.25000000  0.75000000  1.953125e-03 
  0.50000000  0.25000000  0.87500000  1.953125e-03 
  0.50000000  0.37500000  0.00000000  1.953125e-03 
  0.50000000  0.37500000  0.12500000  1.953125e-03 
  0.50000000  0.37500000  0.25000000  1.953125e-03 
  0.50000000  0.37500000  0.37500000  1.953125e-03 
  0.50000000  0.37500000  0.50000000  1.953125e-03 
  0.50000000  0.37500000  0.62500000  1.953125e-03 
  0.50000000  0.37500000  0.75000000  1.953125e-03 
  0.50000000  0.37500000  0.87500000  1.953125e-03 
  0.50000000  0.50000000  0.00000000  1.953125e-03 
  0.50000000  0.50000000  0.12500000  1.953125e-03 
  0.50000000  0.50000000  0.25000000  1.953125e-03 
  0.50000000  0.50000000  0.37500000  1.953125e-03 
  0.50000000  0.50000000  0.50000000  1.953125e-03 
  0.50000000  0.50000000  0.62500000  1.953125e-03 
  0.50000000  0.50000000  0.75000000  1.953125e-03 
  0.50000000  0.50000000  0.87500000  1.953125e-03 
  0.50000000  0.62500000  0.00000000  1.953125e-03 
  0.50000000  0.62500000  0.12500000  1.953125e-03 
  0.50000000  0.62500000  0.25000000  1.953125e-03 
  0.50000000  0.62500000  0.37500000  1.953125e-03 
  0.50000000  0.62500000  0.50000000  1.953125e-03 
  0.50000000  0.62500000  0.62500000  1.953125e-03 
  0.50000000  0.62500000  0.75000000  1.953125e-03 
  0.50000000  0.62500000  0.87500000  1.953125e-03 
  0.50000000  0.75000000  0.00000000  1.953125e-03 
  0.50000000  0.75000000  0.12500000  1.953125e-03 
  0.50000000  0.75000000  0.25000000  1.953125e-03 
  0.50000000  0.75000000  0.37500000  1.953125e-03 
  0.50000000  0.75000000  0.50000000  1.953125e-03 
  0.50000000  0.75000000  0.62500000  1.953125e-03 
  0.50000000  0.75000000  0.75000000  1.953125e-03 
  0.50000000  0.75000000  0.87500000  1.953125e-03 
  0.50000000  0.87500000  0.00000000  1.953125e-03 
  0.50000000  0.87500000  0.12500000  1.953125e-03 
  0.50000000  0.87500000  0.25000000  1.953125e-03 
  0.50000000  0.87500000  0.37500000  1.953125e-03 
  0.50000000  0.87500000  0.50000000  1.953125e-03 
  0.50000000  0.87500000  0.62500000  1.953125e-03 
  0.50000000  0.87500000  0.75000000  1.953125e-03 
  0.50000000  0.87500000  0.87500000  1.953125e-03 
  0.62500000  0.00000000  0.00000000  1.953125e-03 
  0.62500000  0.00000000  0.12500000  1.953125e-03 
  0.62500000  0.00000000  0.25000000  1.953125e-03 
  0.62500000  0.00000000  0.37500000  1.953125e-03 
  0.62500000  0.00000000  0.50000000  1.953125e-03 
  0.62500000  0.00000000  0.62500000  1.953125e-03 
  0.62500000  0.00000000  0.75000000  1.953125e-03 
  0.62500000  0.00000000  0.87500000  1.953125e-03 
  0.62500000  0.12500000  0.00000000  1.953125e-03 
  0.62500000  0.12500000  0.12500000  1.953125e-03 
  0.62500000  0.12500000  0.25000000  1.953125e-03 
  0.62500000  0.12500000  0.37500000  1.953125e-03 
  0.62500000  0.12500000  0.50000000  1.953125e-03 
  0.62500000  0.12500000  0.62500000  1.953125e-03 
  0.62500000  0.12500000  0.75000000  1.953125e-03 
  0.62500000  0.12500000  0.87500000  1.953125e-03 
  0.62500000  0.25000000  0.00000000  1.953125e-03 
  0.62500000  0.25000000  0.12500000  1.953125e-03 
  0.62500000  0.25000000  0.25000000  1.953125e-03 
  0.62500000  0.25000000  0.37500000  1.953125e-03 
  0.62500000  0.25000000  0.50000000  1.953125e-03 
  0.62500000  0.25000000  0.62500000  1.953125e-03 
  0.62500000  0.25000000  0.75000000  1.953125e-03 
  0.62500000  0.25000000  0.87500000  1.953125e-03 
  0.62500000  0.37500000  0.00000000  1.953125e-03 
  0.62500000  0.37500000  0.12500000  1.953125e-03 
  0.62500000  0.37500000  0.25000000  1.953125e-03 
  0.62500000  0.37500000  0.37500000  1.953125e-03 
  0.62500000  0.37500000  0.50000000  1.953125e-03 
  0.62500000  0.37500000  0.62500000  1.953125e-03 
  0.62500000  0.37500000  0.75000000  1.953125e-03 
  0.62500000  0.37500000  0.87500000  1.953125e-03 
  0.62500000  0.50000000  0.00000000  1.953125e-03 
  0.62500000  0.50000000  0.12500000  1.953125e-03 
  0.62500000  0.50000000  0.25000000  1.953125e-03 
  0.62500000  0.50000000  0.37500000  1.953125e-03 
  0.62500000  0.50000000  0.50000000  1.953125e-03 
  0.62500000  0.50000000  0.62500000  1.953125e-03 
  0.62500000  0.50000000  0.75000000  1.953125e-03 
  0.62500000  0.50000000  0.87500000  1.953125e-03 
  0.62500000  0.62500000  0.00000000  1.953125e-03 
  0.62500000  0.62500000  0.12500000  1.953125e-03 
  0.62500000  0.62500000  0.25000000  1.953125e-03 
  0.62500000  0.62500000  0.37500000  1.953125e-03 
  0.62500000  0.62500000  0.50000000  1.953125e-03 
  0.62500000  0.62500000  0.62500000  1.953125e-03 
  0.62500000  0.62500000  0.75000000  1.953125e-03 
  0.62500000  0.62500000  0.87500000  1.953125e-03 
  0.62500000  0.75000000  0.00000000  1.953125e-03 
  0.62500000  0.75000000  0.12500000  1.953125e-03 
  0.62500000  0.75000000  0.25000000  1.953125e-03 
  0.62500000  0.75000000  0.37500000  1.953125e-03 
  0.62500000  0.75000000  0.50000000  1.953125e-03 
  0.62500000  0.75000000  0.62500000  1.953125e-03 
  0.62500000  0.75000000  0.75000000  1.953125e-03 
  0.62500000  0.75000000  0.87500000  1.953125e-03 
  0.62500000  0.87500000  0.00000000  1.953125e-03 
  0.62500000  0.87500000  0.12500000  1.953125e-03 
  0.62500000  0.87500000  0.25000000  1.953125e-03 
  0.62500000  0.87500000  0.37500000  1.953125e-03 
  0.62500000  0.87500000  0.50000000  1.953125e-03 
  0.62500000  0.87500000  0.62500000  1.953125e-03 
  0.62500000  0.87500000  0.75000000  1.953125e-03 
  0.62500000  0.87500000  0.87500000  1.953125e-03 
  0.75000000  0.00000000  0.00000000  1.953125e-03 
  0.75000000  0.00000000  0.12500000  1.953125e-03 
  0.75000000  0.00000000  0.25000000  1.953125e-03 
  0.75000000  0.00000000  0.37500000  1.953125e-03 
  0.75000000  0.00000000  0.50000000  1.953125e-03 
  0.75000000  0.00000000  0.62500000  1.953125e-03 
  0.75000000  0.00000000  0.75000000  1.953125e-03 
  0.75000000  0.00000000  0.87500000  1.953125e-03 
  0.75000000  0.12500000  0.00000000  1.953125e-03 
  0.75000000  0.12500000  0.12500000  1.953125e-03 
  0.75000000  0.12500000  0.25000000  1.953125e-03 
  0.75000000  0.12500000  0.37500000  1.953125e-03 
  0.75000000  0.12500000  0.50000000  1.953125e-03 
  0.75000000  0.12500000  0.62500000  1.953125e-03 
  0.75000000  0.12500000  0.75000000  1.953125e-03 
  0.75000000  0.12500000  0.87500000  1.953125e-03 
  0.75000000  0.25000000  0.00000000  1.953125e-03 
  0.75000000  0.25000000  0.12500000  1.953125e-03 
  0.75000000  0.25000000  0.25000000  1.953125e-03 
  0.75000000  0.25000000  0.37500000  1.953125e-03 
  0.75000000  0.25000000  0.50000000  1.953125e-03 
  0.75000000  0.25000000  0.62500000  1.953125e-03 
  0.75000000  0.25000000  0.75000000  1.953125e-03 
  0.75000000  0.25000000  0.87500000  1.953125e-03 
  0.75000000  0.37500000  0.00000000  1.953125e-03 
  0.75000000  0.37500000  0.12500000  1.953125e-03 
  0.75000000  0.37500000  0.25000000  1.953125e-03 
  0.75000000  0.37500000  0.37500000  1.953125e-03 
  0.75000000  0.37500000  0.50000000  1.953125e-03 
  0.75000000  0.37500000  0.62500000  1.953125e-03 
  0.75000000  0.37500000  0.75000000  1.953125e-03 
  0.75000000  0.37500000  0.87500000  1.953125e-03 
  0.75000000  0.50000000  0.00000000  1.953125e-03 
  0.75000000  0.50000000  0.12500000  1.953125e-03 
  0.75000000  0.50000000  0.25000000  1.953125e-03 
  0.75000000  0.50000000  0.37500000  1.953125e-03 
  0.75000000  0.50000000  0.50000000  1.953125e-03 
  0.75000000  0.50000000  0.62500000  1.953125e-03 
  0.75000000  0.50000000  0.75000000  1.953125e-03 
  0.75000000  0.50000000  0.87500000  1.953125e-03 
  0.75000000  0.62500000  0.00000000  1.953125e-03 
  0.75000000  0.62500000  0.12500000  1.953125e-03 
  0.75000000  0.62500000  0.25000000  1.953125e-03 
  0.75000000  0.62500000  0.37500000  1.953125e-03 
  0.75000000  0.62500000  0.50000000  1.953125e-03 
  0.75000000  0.62500000  0.62500000  1.953125e-03 
  0.75000000  0.62500000  0.75000000  1.953125e-03 
  0.75000000  0.62500000  0.87500000  1.953125e-03 
  0.75000000  0.75000000  0.00000000  1.953125e-03 
  0.75000000  0.75000000  0.12500000  1.953125e-03 
  0.75000000  0.75000000  0.25000000  1.953125e-03 
  0.75000000  0.75000000  0.37500000  1.953125e-03 
  0.75000000  0.75000000  0.50000000  1.953125e-03 
  0.75000000  0.75000000  0.62500000  1.953125e-03 
  0.75000000  0.75000000  0.75000000  1.953125e-03 
  0.75000000  0.75000000  0.87500000  1.953125e-03 
  0.75000000  0.87500000  0.00000000  1.953125e-03 
  0.75000000  0.87500000  0.12500000  1.953125e-03 
  0.75000000  0.87500000  0.25000000  1.953125e-03 
  0.75000000  0.87500000  0.37500000  1.953125e-03 
  0.75000000  0.87500000  0.50000000  1.953125e-03 
  0.75000000  0.87500000  0.62500000  1.953125e-03 
  0.75000000  0.87500000  0.75000000  1.953125e-03 
  0.75000000  0.87500000  0.87500000  1.953125e-03 
  0.87500000  0.00000000  0.00000000  1.953125e-03 
  0.87500000  0.00000000  0.12500000  1.953125e-03 
  0.87500000  0.00000000  0.25000000  1.953125e-03 
  0.87500000  0.00000000  0.37500000  1.953125e-03 
  0.87500000  0.00000000  0.50000000  1.953125e-03 
  0.87500000  0.00000000  0.62500000  1.953125e-03 
  0.87500000  0.00000000  0.75000000  1.953125e-03 
  0.87500000  0.00000000  0.87500000  1.953125e-03 
  0.87500000  0.12500000  0.00000000  1.953125e-03 
  0.87500000  0.12500000  0.12500000  1.953125e-03 
  0.87500000  0.12500000  0.25000000  1.953125e-03 
  0.87500000  0.12500000  0.37500000  1.953125e-03 
  0.87500000  0.12500000  0.50000000  1.953125e-03 
  0.87500000  0.12500000  0.62500000  1.953125e-03 
  0.87500000  0.12500000  0.75000000  1.953125e-03 
  0.87500000  0.12500000  0.87500000  1.953125e-03 
  0.87500000  0.25000000  0.00000000  1.953125e-03 
  0.87500000  0.25000000  0.12500000  1.953125e-03 
  0.87500000  0.25000000  0.25000000  1.953125e-03 
  0.87500000  0.25000000  0.37500000  1.953125e-03 
  0.87500000  0.25000000  0.50000000  1.953125e-03 
  0.87500000  0.25000000  0.62500000  1.953125e-03 
  0.87500000  0.25000000  0.75000000  1.953125e-03 
  0.87500000  0.25000000  0.87500000  1.953125e-03 
  0.87500000  0.37500000  0.00000000  1.953125e-03 
  0.87500000  0.37500000  0.12500000  1.953125e-03 
  0.87500000  0.37500000  0.25000000  1.953125e-03 
  0.87500000  0.37500000  0.37500000  1.953125e-03 
  0.87500000  0.37500000  0.50000000  1.953125e-03 
  0.87500000  0.37500000  0.62500000  1.953125e-03 
  0.87500000  0.37500000  0.75000000  1.953125e-03 
  0.87500000  0.37500000  0.87500000  1.953125e-03 
  0.87500000  0.50000000  0.00000000  1.953125e-03 
  0.87500000  0.50000000  0.12500000  1.953125e-03 
  0.87500000  0.50000000  0.25000000  1.953125e-03 
  0.87500000  0.50000000  0.37500000  1.953125e-03 
  0.87500000  0.50000000  0.50000000  1.953125e-03 
  0.87500000  0.50000000  0.62500000  1.953125e-03 
  0.87500000  0.50000000  0.75000000  1.953125e-03 
  0.87500000  0.50000000  0.87500000  1.953125e-03 
  0.87500000  0.62500000  0.00000000  1.953125e-03 
  0.87500000  0.62500000  0.12500000  1.953125e-03 
  0.87500000  0.62500000  0.25000000  1.953125e-03 
  0.87500000  0.62500000  0.37500000  1.953125e-03 
  0.87500000  0.62500000  0.50000000  1.953125e-03 
  0.87500000  0.62500000  0.62500000  1.953125e-03 
  0.87500000  0.62500000  0.75000000  1.953125e-03 
  0.87500000  0.62500000  0.87500000  1.953125e-03 
  0.87500000  0.75000000  0.00000000  1.953125e-03 
  0.87500000  0.75000000  0.12500000  1.953125e-03 
  0.87500000  0.75000000  0.25000000  1.953125e-03 
  0.87500000  0.75000000  0.37500000  1.953125e-03 
  0.87500000  0.75000000  0.50000000  1.953125e-03 
  0.87500000  0.75000000  0.62500000  1.953125e-03 
  0.87500000  0.75000000  0.75000000  1.953125e-03 
  0.87500000  0.75000000  0.87500000  1.953125e-03 
  0.87500000  0.87500000  0.00000000  1.953125e-03 
  0.87500000  0.87500000  0.12500000  1.953125e-03 
  0.87500000  0.87500000  0.25000000  1.953125e-03 
  0.87500000  0.87500000  0.37500000  1.953125e-03 
  0.87500000  0.87500000  0.50000000  1.953125e-03 
  0.87500000  0.87500000  0.62500000  1.953125e-03 
  0.87500000  0.87500000  0.75000000  1.953125e-03 
  0.87500000  0.87500000  0.87500000  1.953125e-03 
