!input of Wannier 90 
num_wann        =  10
exclude_bands = 1:24
num_bands = 10
num_iter        = 800
iprint = 2
guiding_centres=true

write_hr = .TRUE.
write_xyz=.TRUE.
write_u_matrices = .true.
write_hr_diag=.TRUE.

bands_plot      =  true
begin kpoint_path
Z 0.5000   0.5000  0.5000  G 0.00000  0.00000  0.0000
G 0.0000   0.0000  0.0000  X 0.00000  0.50000  0.5000
X 0.0000   0.5000  0.5000  P 0.25000  0.75000  0.7500
P 0.2500   0.7500  0.7500  N 0.00000  0.00000  0.5000
N 0.0000   0.0000  0.5000  G 0.00000  0.00000  0.0000
end kpoint_path

begin atoms_cart
bohr
Ti      0.00000   0.00000   0.00000 
Ti      0.00000   3.57675   4.49687 
O      0.00000   0.00000   3.77285   
O      0.00000   3.57675   8.26972  
O      3.57675   3.57675   5.22089   
O      0.00000   3.57675   0.72402  
end atoms_cart

begin projections
Ti:d
end projections

begin unit_cell_cart
bohr
   3.57675   -3.57675    8.993734
   3.57675    3.57675    8.993734
  -3.57675   -3.57675    8.993734
end unit_cell_cart

mp_grid : 8 8 8  

begin kpoints
  0.00000000  0.00000000  0.00000000 
  0.00000000  0.00000000  0.12500000 
  0.00000000  0.00000000  0.25000000 
  0.00000000  0.00000000  0.37500000 
  0.00000000  0.00000000  0.50000000 
  0.00000000  0.00000000  0.62500000 
  0.00000000  0.00000000  0.75000000 
  0.00000000  0.00000000  0.87500000 
  0.00000000  0.12500000  0.00000000 
  0.00000000  0.12500000  0.12500000 
  0.00000000  0.12500000  0.25000000 
  0.00000000  0.12500000  0.37500000 
  0.00000000  0.12500000  0.50000000 
  0.00000000  0.12500000  0.62500000 
  0.00000000  0.12500000  0.75000000 
  0.00000000  0.12500000  0.87500000 
  0.00000000  0.25000000  0.00000000 
  0.00000000  0.25000000  0.12500000 
  0.00000000  0.25000000  0.25000000 
  0.00000000  0.25000000  0.37500000 
  0.00000000  0.25000000  0.50000000 
  0.00000000  0.25000000  0.62500000 
  0.00000000  0.25000000  0.75000000 
  0.00000000  0.25000000  0.87500000 
  0.00000000  0.37500000  0.00000000 
  0.00000000  0.37500000  0.12500000 
  0.00000000  0.37500000  0.25000000 
  0.00000000  0.37500000  0.37500000 
  0.00000000  0.37500000  0.50000000 
  0.00000000  0.37500000  0.62500000 
  0.00000000  0.37500000  0.75000000 
  0.00000000  0.37500000  0.87500000 
  0.00000000  0.50000000  0.00000000 
  0.00000000  0.50000000  0.12500000 
  0.00000000  0.50000000  0.25000000 
  0.00000000  0.50000000  0.37500000 
  0.00000000  0.50000000  0.50000000 
  0.00000000  0.50000000  0.62500000 
  0.00000000  0.50000000  0.75000000 
  0.00000000  0.50000000  0.87500000 
  0.00000000  0.62500000  0.00000000 
  0.00000000  0.62500000  0.12500000 
  0.00000000  0.62500000  0.25000000 
  0.00000000  0.62500000  0.37500000 
  0.00000000  0.62500000  0.50000000 
  0.00000000  0.62500000  0.62500000 
  0.00000000  0.62500000  0.75000000 
  0.00000000  0.62500000  0.87500000 
  0.00000000  0.75000000  0.00000000 
  0.00000000  0.75000000  0.12500000 
  0.00000000  0.75000000  0.25000000 
  0.00000000  0.75000000  0.37500000 
  0.00000000  0.75000000  0.50000000 
  0.00000000  0.75000000  0.62500000 
  0.00000000  0.75000000  0.75000000 
  0.00000000  0.75000000  0.87500000 
  0.00000000  0.87500000  0.00000000 
  0.00000000  0.87500000  0.12500000 
  0.00000000  0.87500000  0.25000000 
  0.00000000  0.87500000  0.37500000 
  0.00000000  0.87500000  0.50000000 
  0.00000000  0.87500000  0.62500000 
  0.00000000  0.87500000  0.75000000 
  0.00000000  0.87500000  0.87500000 
  0.12500000  0.00000000  0.00000000 
  0.12500000  0.00000000  0.12500000 
  0.12500000  0.00000000  0.25000000 
  0.12500000  0.00000000  0.37500000 
  0.12500000  0.00000000  0.50000000 
  0.12500000  0.00000000  0.62500000 
  0.12500000  0.00000000  0.75000000 
  0.12500000  0.00000000  0.87500000 
  0.12500000  0.12500000  0.00000000 
  0.12500000  0.12500000  0.12500000 
  0.12500000  0.12500000  0.25000000 
  0.12500000  0.12500000  0.37500000 
  0.12500000  0.12500000  0.50000000 
  0.12500000  0.12500000  0.62500000 
  0.12500000  0.12500000  0.75000000 
  0.12500000  0.12500000  0.87500000 
  0.12500000  0.25000000  0.00000000 
  0.12500000  0.25000000  0.12500000 
  0.12500000  0.25000000  0.25000000 
  0.12500000  0.25000000  0.37500000 
  0.12500000  0.25000000  0.50000000 
  0.12500000  0.25000000  0.62500000 
  0.12500000  0.25000000  0.75000000 
  0.12500000  0.25000000  0.87500000 
  0.12500000  0.37500000  0.00000000 
  0.12500000  0.37500000  0.12500000 
  0.12500000  0.37500000  0.25000000 
  0.12500000  0.37500000  0.37500000 
  0.12500000  0.37500000  0.50000000 
  0.12500000  0.37500000  0.62500000 
  0.12500000  0.37500000  0.75000000 
  0.12500000  0.37500000  0.87500000 
  0.12500000  0.50000000  0.00000000 
  0.12500000  0.50000000  0.12500000 
  0.12500000  0.50000000  0.25000000 
  0.12500000  0.50000000  0.37500000 
  0.12500000  0.50000000  0.50000000 
  0.12500000  0.50000000  0.62500000 
  0.12500000  0.50000000  0.75000000 
  0.12500000  0.50000000  0.87500000 
  0.12500000  0.62500000  0.00000000 
  0.12500000  0.62500000  0.12500000 
  0.12500000  0.62500000  0.25000000 
  0.12500000  0.62500000  0.37500000 
  0.12500000  0.62500000  0.50000000 
  0.12500000  0.62500000  0.62500000 
  0.12500000  0.62500000  0.75000000 
  0.12500000  0.62500000  0.87500000 
  0.12500000  0.75000000  0.00000000 
  0.12500000  0.75000000  0.12500000 
  0.12500000  0.75000000  0.25000000 
  0.12500000  0.75000000  0.37500000 
  0.12500000  0.75000000  0.50000000 
  0.12500000  0.75000000  0.62500000 
  0.12500000  0.75000000  0.75000000 
  0.12500000  0.75000000  0.87500000 
  0.12500000  0.87500000  0.00000000 
  0.12500000  0.87500000  0.12500000 
  0.12500000  0.87500000  0.25000000 
  0.12500000  0.87500000  0.37500000 
  0.12500000  0.87500000  0.50000000 
  0.12500000  0.87500000  0.62500000 
  0.12500000  0.87500000  0.75000000 
  0.12500000  0.87500000  0.87500000 
  0.25000000  0.00000000  0.00000000 
  0.25000000  0.00000000  0.12500000 
  0.25000000  0.00000000  0.25000000 
  0.25000000  0.00000000  0.37500000 
  0.25000000  0.00000000  0.50000000 
  0.25000000  0.00000000  0.62500000 
  0.25000000  0.00000000  0.75000000 
  0.25000000  0.00000000  0.87500000 
  0.25000000  0.12500000  0.00000000 
  0.25000000  0.12500000  0.12500000 
  0.25000000  0.12500000  0.25000000 
  0.25000000  0.12500000  0.37500000 
  0.25000000  0.12500000  0.50000000 
  0.25000000  0.12500000  0.62500000 
  0.25000000  0.12500000  0.75000000 
  0.25000000  0.12500000  0.87500000 
  0.25000000  0.25000000  0.00000000 
  0.25000000  0.25000000  0.12500000 
  0.25000000  0.25000000  0.25000000 
  0.25000000  0.25000000  0.37500000 
  0.25000000  0.25000000  0.50000000 
  0.25000000  0.25000000  0.62500000 
  0.25000000  0.25000000  0.75000000 
  0.25000000  0.25000000  0.87500000 
  0.25000000  0.37500000  0.00000000 
  0.25000000  0.37500000  0.12500000 
  0.25000000  0.37500000  0.25000000 
  0.25000000  0.37500000  0.37500000 
  0.25000000  0.37500000  0.50000000 
  0.25000000  0.37500000  0.62500000 
  0.25000000  0.37500000  0.75000000 
  0.25000000  0.37500000  0.87500000 
  0.25000000  0.50000000  0.00000000 
  0.25000000  0.50000000  0.12500000 
  0.25000000  0.50000000  0.25000000 
  0.25000000  0.50000000  0.37500000 
  0.25000000  0.50000000  0.50000000 
  0.25000000  0.50000000  0.62500000 
  0.25000000  0.50000000  0.75000000 
  0.25000000  0.50000000  0.87500000 
  0.25000000  0.62500000  0.00000000 
  0.25000000  0.62500000  0.12500000 
  0.25000000  0.62500000  0.25000000 
  0.25000000  0.62500000  0.37500000 
  0.25000000  0.62500000  0.50000000 
  0.25000000  0.62500000  0.62500000 
  0.25000000  0.62500000  0.75000000 
  0.25000000  0.62500000  0.87500000 
  0.25000000  0.75000000  0.00000000 
  0.25000000  0.75000000  0.12500000 
  0.25000000  0.75000000  0.25000000 
  0.25000000  0.75000000  0.37500000 
  0.25000000  0.75000000  0.50000000 
  0.25000000  0.75000000  0.62500000 
  0.25000000  0.75000000  0.75000000 
  0.25000000  0.75000000  0.87500000 
  0.25000000  0.87500000  0.00000000 
  0.25000000  0.87500000  0.12500000 
  0.25000000  0.87500000  0.25000000 
  0.25000000  0.87500000  0.37500000 
  0.25000000  0.87500000  0.50000000 
  0.25000000  0.87500000  0.62500000 
  0.25000000  0.87500000  0.75000000 
  0.25000000  0.87500000  0.87500000 
  0.37500000  0.00000000  0.00000000 
  0.37500000  0.00000000  0.12500000 
  0.37500000  0.00000000  0.25000000 
  0.37500000  0.00000000  0.37500000 
  0.37500000  0.00000000  0.50000000 
  0.37500000  0.00000000  0.62500000 
  0.37500000  0.00000000  0.75000000 
  0.37500000  0.00000000  0.87500000 
  0.37500000  0.12500000  0.00000000 
  0.37500000  0.12500000  0.12500000 
  0.37500000  0.12500000  0.25000000 
  0.37500000  0.12500000  0.37500000 
  0.37500000  0.12500000  0.50000000 
  0.37500000  0.12500000  0.62500000 
  0.37500000  0.12500000  0.75000000 
  0.37500000  0.12500000  0.87500000 
  0.37500000  0.25000000  0.00000000 
  0.37500000  0.25000000  0.12500000 
  0.37500000  0.25000000  0.25000000 
  0.37500000  0.25000000  0.37500000 
  0.37500000  0.25000000  0.50000000 
  0.37500000  0.25000000  0.62500000 
  0.37500000  0.25000000  0.75000000 
  0.37500000  0.25000000  0.87500000 
  0.37500000  0.37500000  0.00000000 
  0.37500000  0.37500000  0.12500000 
  0.37500000  0.37500000  0.25000000 
  0.37500000  0.37500000  0.37500000 
  0.37500000  0.37500000  0.50000000 
  0.37500000  0.37500000  0.62500000 
  0.37500000  0.37500000  0.75000000 
  0.37500000  0.37500000  0.87500000 
  0.37500000  0.50000000  0.00000000 
  0.37500000  0.50000000  0.12500000 
  0.37500000  0.50000000  0.25000000 
  0.37500000  0.50000000  0.37500000 
  0.37500000  0.50000000  0.50000000 
  0.37500000  0.50000000  0.62500000 
  0.37500000  0.50000000  0.75000000 
  0.37500000  0.50000000  0.87500000 
  0.37500000  0.62500000  0.00000000 
  0.37500000  0.62500000  0.12500000 
  0.37500000  0.62500000  0.25000000 
  0.37500000  0.62500000  0.37500000 
  0.37500000  0.62500000  0.50000000 
  0.37500000  0.62500000  0.62500000 
  0.37500000  0.62500000  0.75000000 
  0.37500000  0.62500000  0.87500000 
  0.37500000  0.75000000  0.00000000 
  0.37500000  0.75000000  0.12500000 
  0.37500000  0.75000000  0.25000000 
  0.37500000  0.75000000  0.37500000 
  0.37500000  0.75000000  0.50000000 
  0.37500000  0.75000000  0.62500000 
  0.37500000  0.75000000  0.75000000 
  0.37500000  0.75000000  0.87500000 
  0.37500000  0.87500000  0.00000000 
  0.37500000  0.87500000  0.12500000 
  0.37500000  0.87500000  0.25000000 
  0.37500000  0.87500000  0.37500000 
  0.37500000  0.87500000  0.50000000 
  0.37500000  0.87500000  0.62500000 
  0.37500000  0.87500000  0.75000000 
  0.37500000  0.87500000  0.87500000 
  0.50000000  0.00000000  0.00000000 
  0.50000000  0.00000000  0.12500000 
  0.50000000  0.00000000  0.25000000 
  0.50000000  0.00000000  0.37500000 
  0.50000000  0.00000000  0.50000000 
  0.50000000  0.00000000  0.62500000 
  0.50000000  0.00000000  0.75000000 
  0.50000000  0.00000000  0.87500000 
  0.50000000  0.12500000  0.00000000 
  0.50000000  0.12500000  0.12500000 
  0.50000000  0.12500000  0.25000000 
  0.50000000  0.12500000  0.37500000 
  0.50000000  0.12500000  0.50000000 
  0.50000000  0.12500000  0.62500000 
  0.50000000  0.12500000  0.75000000 
  0.50000000  0.12500000  0.87500000 
  0.50000000  0.25000000  0.00000000 
  0.50000000  0.25000000  0.12500000 
  0.50000000  0.25000000  0.25000000 
  0.50000000  0.25000000  0.37500000 
  0.50000000  0.25000000  0.50000000 
  0.50000000  0.25000000  0.62500000 
  0.50000000  0.25000000  0.75000000 
  0.50000000  0.25000000  0.87500000 
  0.50000000  0.37500000  0.00000000 
  0.50000000  0.37500000  0.12500000 
  0.50000000  0.37500000  0.25000000 
  0.50000000  0.37500000  0.37500000 
  0.50000000  0.37500000  0.50000000 
  0.50000000  0.37500000  0.62500000 
  0.50000000  0.37500000  0.75000000 
  0.50000000  0.37500000  0.87500000 
  0.50000000  0.50000000  0.00000000 
  0.50000000  0.50000000  0.12500000 
  0.50000000  0.50000000  0.25000000 
  0.50000000  0.50000000  0.37500000 
  0.50000000  0.50000000  0.50000000 
  0.50000000  0.50000000  0.62500000 
  0.50000000  0.50000000  0.75000000 
  0.50000000  0.50000000  0.87500000 
  0.50000000  0.62500000  0.00000000 
  0.50000000  0.62500000  0.12500000 
  0.50000000  0.62500000  0.25000000 
  0.50000000  0.62500000  0.37500000 
  0.50000000  0.62500000  0.50000000 
  0.50000000  0.62500000  0.62500000 
  0.50000000  0.62500000  0.75000000 
  0.50000000  0.62500000  0.87500000 
  0.50000000  0.75000000  0.00000000 
  0.50000000  0.75000000  0.12500000 
  0.50000000  0.75000000  0.25000000 
  0.50000000  0.75000000  0.37500000 
  0.50000000  0.75000000  0.50000000 
  0.50000000  0.75000000  0.62500000 
  0.50000000  0.75000000  0.75000000 
  0.50000000  0.75000000  0.87500000 
  0.50000000  0.87500000  0.00000000 
  0.50000000  0.87500000  0.12500000 
  0.50000000  0.87500000  0.25000000 
  0.50000000  0.87500000  0.37500000 
  0.50000000  0.87500000  0.50000000 
  0.50000000  0.87500000  0.62500000 
  0.50000000  0.87500000  0.75000000 
  0.50000000  0.87500000  0.87500000 
  0.62500000  0.00000000  0.00000000 
  0.62500000  0.00000000  0.12500000 
  0.62500000  0.00000000  0.25000000 
  0.62500000  0.00000000  0.37500000 
  0.62500000  0.00000000  0.50000000 
  0.62500000  0.00000000  0.62500000 
  0.62500000  0.00000000  0.75000000 
  0.62500000  0.00000000  0.87500000 
  0.62500000  0.12500000  0.00000000 
  0.62500000  0.12500000  0.12500000 
  0.62500000  0.12500000  0.25000000 
  0.62500000  0.12500000  0.37500000 
  0.62500000  0.12500000  0.50000000 
  0.62500000  0.12500000  0.62500000 
  0.62500000  0.12500000  0.75000000 
  0.62500000  0.12500000  0.87500000 
  0.62500000  0.25000000  0.00000000 
  0.62500000  0.25000000  0.12500000 
  0.62500000  0.25000000  0.25000000 
  0.62500000  0.25000000  0.37500000 
  0.62500000  0.25000000  0.50000000 
  0.62500000  0.25000000  0.62500000 
  0.62500000  0.25000000  0.75000000 
  0.62500000  0.25000000  0.87500000 
  0.62500000  0.37500000  0.00000000 
  0.62500000  0.37500000  0.12500000 
  0.62500000  0.37500000  0.25000000 
  0.62500000  0.37500000  0.37500000 
  0.62500000  0.37500000  0.50000000 
  0.62500000  0.37500000  0.62500000 
  0.62500000  0.37500000  0.75000000 
  0.62500000  0.37500000  0.87500000 
  0.62500000  0.50000000  0.00000000 
  0.62500000  0.50000000  0.12500000 
  0.62500000  0.50000000  0.25000000 
  0.62500000  0.50000000  0.37500000 
  0.62500000  0.50000000  0.50000000 
  0.62500000  0.50000000  0.62500000 
  0.62500000  0.50000000  0.75000000 
  0.62500000  0.50000000  0.87500000 
  0.62500000  0.62500000  0.00000000 
  0.62500000  0.62500000  0.12500000 
  0.62500000  0.62500000  0.25000000 
  0.62500000  0.62500000  0.37500000 
  0.62500000  0.62500000  0.50000000 
  0.62500000  0.62500000  0.62500000 
  0.62500000  0.62500000  0.75000000 
  0.62500000  0.62500000  0.87500000 
  0.62500000  0.75000000  0.00000000 
  0.62500000  0.75000000  0.12500000 
  0.62500000  0.75000000  0.25000000 
  0.62500000  0.75000000  0.37500000 
  0.62500000  0.75000000  0.50000000 
  0.62500000  0.75000000  0.62500000 
  0.62500000  0.75000000  0.75000000 
  0.62500000  0.75000000  0.87500000 
  0.62500000  0.87500000  0.00000000 
  0.62500000  0.87500000  0.12500000 
  0.62500000  0.87500000  0.25000000 
  0.62500000  0.87500000  0.37500000 
  0.62500000  0.87500000  0.50000000 
  0.62500000  0.87500000  0.62500000 
  0.62500000  0.87500000  0.75000000 
  0.62500000  0.87500000  0.87500000 
  0.75000000  0.00000000  0.00000000 
  0.75000000  0.00000000  0.12500000 
  0.75000000  0.00000000  0.25000000 
  0.75000000  0.00000000  0.37500000 
  0.75000000  0.00000000  0.50000000 
  0.75000000  0.00000000  0.62500000 
  0.75000000  0.00000000  0.75000000 
  0.75000000  0.00000000  0.87500000 
  0.75000000  0.12500000  0.00000000 
  0.75000000  0.12500000  0.12500000 
  0.75000000  0.12500000  0.25000000 
  0.75000000  0.12500000  0.37500000 
  0.75000000  0.12500000  0.50000000 
  0.75000000  0.12500000  0.62500000 
  0.75000000  0.12500000  0.75000000 
  0.75000000  0.12500000  0.87500000 
  0.75000000  0.25000000  0.00000000 
  0.75000000  0.25000000  0.12500000 
  0.75000000  0.25000000  0.25000000 
  0.75000000  0.25000000  0.37500000 
  0.75000000  0.25000000  0.50000000 
  0.75000000  0.25000000  0.62500000 
  0.75000000  0.25000000  0.75000000 
  0.75000000  0.25000000  0.87500000 
  0.75000000  0.37500000  0.00000000 
  0.75000000  0.37500000  0.12500000 
  0.75000000  0.37500000  0.25000000 
  0.75000000  0.37500000  0.37500000 
  0.75000000  0.37500000  0.50000000 
  0.75000000  0.37500000  0.62500000 
  0.75000000  0.37500000  0.75000000 
  0.75000000  0.37500000  0.87500000 
  0.75000000  0.50000000  0.00000000 
  0.75000000  0.50000000  0.12500000 
  0.75000000  0.50000000  0.25000000 
  0.75000000  0.50000000  0.37500000 
  0.75000000  0.50000000  0.50000000 
  0.75000000  0.50000000  0.62500000 
  0.75000000  0.50000000  0.75000000 
  0.75000000  0.50000000  0.87500000 
  0.75000000  0.62500000  0.00000000 
  0.75000000  0.62500000  0.12500000 
  0.75000000  0.62500000  0.25000000 
  0.75000000  0.62500000  0.37500000 
  0.75000000  0.62500000  0.50000000 
  0.75000000  0.62500000  0.62500000 
  0.75000000  0.62500000  0.75000000 
  0.75000000  0.62500000  0.87500000 
  0.75000000  0.75000000  0.00000000 
  0.75000000  0.75000000  0.12500000 
  0.75000000  0.75000000  0.25000000 
  0.75000000  0.75000000  0.37500000 
  0.75000000  0.75000000  0.50000000 
  0.75000000  0.75000000  0.62500000 
  0.75000000  0.75000000  0.75000000 
  0.75000000  0.75000000  0.87500000 
  0.75000000  0.87500000  0.00000000 
  0.75000000  0.87500000  0.12500000 
  0.75000000  0.87500000  0.25000000 
  0.75000000  0.87500000  0.37500000 
  0.75000000  0.87500000  0.50000000 
  0.75000000  0.87500000  0.62500000 
  0.75000000  0.87500000  0.75000000 
  0.75000000  0.87500000  0.87500000 
  0.87500000  0.00000000  0.00000000 
  0.87500000  0.00000000  0.12500000 
  0.87500000  0.00000000  0.25000000 
  0.87500000  0.00000000  0.37500000 
  0.87500000  0.00000000  0.50000000 
  0.87500000  0.00000000  0.62500000 
  0.87500000  0.00000000  0.75000000 
  0.87500000  0.00000000  0.87500000 
  0.87500000  0.12500000  0.00000000 
  0.87500000  0.12500000  0.12500000 
  0.87500000  0.12500000  0.25000000 
  0.87500000  0.12500000  0.37500000 
  0.87500000  0.12500000  0.50000000 
  0.87500000  0.12500000  0.62500000 
  0.87500000  0.12500000  0.75000000 
  0.87500000  0.12500000  0.87500000 
  0.87500000  0.25000000  0.00000000 
  0.87500000  0.25000000  0.12500000 
  0.87500000  0.25000000  0.25000000 
  0.87500000  0.25000000  0.37500000 
  0.87500000  0.25000000  0.50000000 
  0.87500000  0.25000000  0.62500000 
  0.87500000  0.25000000  0.75000000 
  0.87500000  0.25000000  0.87500000 
  0.87500000  0.37500000  0.00000000 
  0.87500000  0.37500000  0.12500000 
  0.87500000  0.37500000  0.25000000 
  0.87500000  0.37500000  0.37500000 
  0.87500000  0.37500000  0.50000000 
  0.87500000  0.37500000  0.62500000 
  0.87500000  0.37500000  0.75000000 
  0.87500000  0.37500000  0.87500000 
  0.87500000  0.50000000  0.00000000 
  0.87500000  0.50000000  0.12500000 
  0.87500000  0.50000000  0.25000000 
  0.87500000  0.50000000  0.37500000 
  0.87500000  0.50000000  0.50000000 
  0.87500000  0.50000000  0.62500000 
  0.87500000  0.50000000  0.75000000 
  0.87500000  0.50000000  0.87500000 
  0.87500000  0.62500000  0.00000000 
  0.87500000  0.62500000  0.12500000 
  0.87500000  0.62500000  0.25000000 
  0.87500000  0.62500000  0.37500000 
  0.87500000  0.62500000  0.50000000 
  0.87500000  0.62500000  0.62500000 
  0.87500000  0.62500000  0.75000000 
  0.87500000  0.62500000  0.87500000 
  0.87500000  0.75000000  0.00000000 
  0.87500000  0.75000000  0.12500000 
  0.87500000  0.75000000  0.25000000 
  0.87500000  0.75000000  0.37500000 
  0.87500000  0.75000000  0.50000000 
  0.87500000  0.75000000  0.62500000 
  0.87500000  0.75000000  0.75000000 
  0.87500000  0.75000000  0.87500000 
  0.87500000  0.87500000  0.00000000 
  0.87500000  0.87500000  0.12500000 
  0.87500000  0.87500000  0.25000000 
  0.87500000  0.87500000  0.37500000 
  0.87500000  0.87500000  0.50000000 
  0.87500000  0.87500000  0.62500000 
  0.87500000  0.87500000  0.75000000 
  0.87500000  0.87500000  0.87500000 
end kpoints
